# 
# This is the geometry file that corresponds to the current relaxation step.
# If you do not want this file to be written, set the "write_restart_geometry" flag to .false.
#  aims_uuid : DABEC15B-A965-4869-A7B0-0706D9CBB666                                
# 
  set_vacuum_level        52.600000
lattice_vector      3.13450758     -0.00026978     -0.00030599
lattice_vector     -1.56726386      2.71426985      0.00119019
lattice_vector      0.00002467      0.00002302     99.83654525
atom      -0.00003351      0.90476410      2.59609600 W
atom       1.56740985      1.80866991      4.15700630 S
atom       1.56711637      1.80985629      1.03557090 S
