# 
# This is the geometry file that corresponds to the current relaxation step.
# If you do not want this file to be written, set the "write_restart_geometry" flag to .false.
#  aims_uuid : 5020B20F-A6C1-4DC8-A45C-BBDE4CDA05B3                                
# 
  set_vacuum_level        52.600000
lattice_vector      3.13670014     -0.00026997     -0.00030620
lattice_vector     -1.56837034      2.71618611      0.00119103
lattice_vector      0.00002467      0.00002302     99.83643977
atom      -0.00003631      0.90540277      2.59609759 W
atom       1.56849480      1.80994973      4.15650792 S
atom       1.56820979      1.81113122      1.03606047 S
# 
# What follows is the current estimated Hessian matrix constructed by the BFGS algorithm.
# This is NOT the true Hessian matrix of the system.
# If you do not want this information here, switch it off using the "hessian_to_restart_geometry" keyword.
# 
trust_radius             0.2000000030
hessian_file
