# 
# This is the geometry file that corresponds to the current relaxation step.
# If you do not want this file to be written, set the "write_restart_geometry" flag to .false.
#  aims_uuid : 9CA3F1EA-5882-4029-AA03-546ADBAE4221                                
# 
  set_vacuum_level        50.000000
lattice_vector      3.16293296      0.00000000      0.00000000
lattice_vector     -1.58146648      2.73918029      0.00000000
lattice_vector      0.00000000      0.00000000    100.00000000
atom      -0.79073324     -0.45653005     -0.00000000 Mo
atom       0.79073324      0.45653005      1.53612468 S
atom       0.79073324      0.45653005     -1.53612468 S
# 
# What follows is the current estimated Hessian matrix constructed by the BFGS algorithm.
# This is NOT the true Hessian matrix of the system.
# If you do not want this information here, switch it off using the "hessian_to_restart_geometry" keyword.
# 
trust_radius             0.1000000015
hessian_file
