#
# temporary structure-file for finite-difference calculation of forces
# displacement  -0.0025 of \# atom    53 direction     0
#
lattice_vector   16.60000000    0.00000000    0.00000000
lattice_vector   -8.30000000   14.37602170    0.00000000
lattice_vector    0.00000000    0.00000000  100.00000000
atom   -0.01084874    0.95371127    2.68601430  Mo
atom    1.66195983    1.95607751    4.31986007  Se
atom    1.64786884    1.89621071    1.00129238  Se
atom   -1.65079925    3.83228027    2.69462251  Mo
atom    0.04540007    4.88205829    4.31057390  Se
atom   -0.02719374    4.77402623    0.97401515  Se
atom   -3.32280877    6.72296152    2.68633115  Mo
atom   -1.61633034    7.69054268    4.32462304  Se
atom   -1.69947042    7.65035468    0.95083959  Se
atom   -4.97999740    9.57501241    2.66320467  Mo
atom   -3.29556793   10.52955883    4.30813063  Se
atom   -3.32440364   10.54798492    0.99875086  Se
atom   -6.64247054   12.46530167    2.66741114  Mo
atom   -4.97999257   13.42101921    4.33486318  Se
atom   -4.97998868   13.42324254    1.00264866  Se
atom    3.32001210    0.96170835    2.66924836  Mo
atom    4.97806502    1.95607579    4.31986375  Se
atom    4.99216358    1.89621101    1.00130086  Se
atom    1.67010720    3.85881387    2.62010278  Mo
atom    3.32003464    4.99791282    4.12410857  Se
atom    3.32003461    4.71361177    0.90372234  Se
atom   -0.07121314    6.72592243    2.58319935  Mo
atom    1.81497375    7.55307866    1.30358551  Se
atom   -1.62796140    9.56979607    2.63154770  Mo
atom    0.03767491   10.48568762    4.30011463  Se
atom   -0.02079890   10.58928837    0.92108350  Se
atom   -3.31752222   12.46530317    2.66741651  Mo
atom   -1.66078108   13.40782692    4.34576082  Se
atom   -1.65818680   13.42876587    1.00754281  Se
atom    6.65085433    0.95370517    2.68602471  Mo
atom    8.28742770    1.92091446    4.37093722  Se
atom    8.31578563    1.91345919    1.03135335  Se
atom    4.96994040    3.85881363    2.62011017  Mo
atom    6.59461621    4.88201852    4.31060581  Se
atom    6.66721055    4.77399536    0.97401552  Se
atom    4.82502766    7.55304297    1.30360843  Se
atom    1.60893215    9.62553280    2.52388755  Mo
atom    3.31997181   10.34358287    4.26083487  Se
atom    3.31997252   10.58265303    0.91665024  Se
atom   -0.00772287   12.44871958    2.67338830  Mo
atom    1.66212826   13.37978459    4.35257686  Se
atom    1.67084740   13.42819181    1.03379749  Se
atom    9.95864579    0.95481467    2.71373251  Mo
atom   11.61999667    1.91145776    4.38346976  Se
atom   11.61999136    1.91515653    1.05416842  Se
atom    8.29078654    3.83226651    2.69463562  Mo
atom    9.94691363    4.80565831    4.36109138  Se
atom    9.96726798    4.77995958    1.04255492  Se
atom    6.71119676    6.72583406    2.58322218  Mo
atom    8.25633231    7.69050742    4.32461974  Se
atom    8.33946000    7.65031654    0.95085612  Se
atom    5.03100195    9.62553839    2.52387904  Mo
atom    6.60230668   10.48569553    4.30009719  Se
atom    6.65828517   10.58928293    0.92107899  Se
atom    3.31997741   12.42878329    2.67969427  Mo
atom    4.97785779   13.37978583    4.35256761  Se
atom    4.96913010   13.42819148    1.03379288  Se
atom   13.28133657    0.95481600    2.71372584  Mo
atom   14.95257279    1.92092239    4.37092611  Se
atom   14.92421199    1.91346438    1.03134384  Se
atom   11.61999068    3.83362031    2.71559374  Mo
atom   13.29308548    4.80566629    4.36108410  Se
atom   13.27272248    4.77996913    1.04255026  Se
atom    9.96281136    6.72294820    2.68633609  Mo
atom   11.62000410    7.68092392    4.35282802  Se
atom   11.61999909    7.65750534    1.00649757  Se
atom    8.26796221    9.56978386    2.63154783  Mo
atom    9.93557948   10.52955760    4.30812892  Se
atom    9.96441286   10.54797703    0.99874864  Se
atom    6.64771991   12.44873578    2.67337628  Mo
atom    8.30079000   13.40783283    4.34575281  Se
atom    8.29820012   13.42876865    1.00753005  Se
