#
# temporary structure-file for finite-difference calculation of forces
# displacement   0.0025 of \# atom    39 direction     0
#
lattice_vector   15.80271867    0.00000000    0.00000000
lattice_vector   -7.87096434   13.65967927    0.00000000
lattice_vector    0.00000000    0.00000000  100.00000000
atom    3.96916084    7.74133487   49.65034200  Mo
atom    5.55074200    8.65138232   51.21812300   S
atom    5.55074113    8.65138245   48.08256100   S
atom    2.39496109   10.47326786   49.65034400  Mo
atom    3.97655086   11.38331407   51.21811900   S
atom    3.97654999   11.38331339   48.08256600   S
atom    0.82076343   13.20521641   49.65034300  Mo
atom   10.27332699    0.45556970   51.21811700   S
atom   10.27332612    0.45556929   48.08256700   S
atom    7.11753297    2.27745961   49.65034100  Mo
atom    8.69912487    3.18750241   51.21812400   S
atom    8.69912511    3.18750310   48.08256000   S
atom    5.54335141    5.00943207   49.65034100  Mo
atom    7.12495319    5.91944127   51.21811800   S
atom    7.12495382    5.91944073   48.08256500   S
atom    7.12968659    7.74134880   49.65034100  Mo
atom    8.71129455    8.65136565   51.21812700   S
atom    8.71129526    8.65136661   48.08255800   S
atom    5.55551483   10.47328944   49.65034200  Mo
atom    7.13710773   11.38332309   51.21811700   S
atom    7.13710844   11.38332213   48.08256700   S
atom    3.98132874   13.20521956   49.65034200  Mo
atom   13.43386623    0.45557066   51.21813900   S
atom   13.43386567    0.45557025   48.08254400   S
atom   10.27808718    2.27747955   49.65034200  Mo
atom   11.85968742    3.18750624   51.21811400   S
atom   11.85968687    3.18750637   48.08256900   S
atom    8.70390944    5.00939601   49.65034200  Mo
atom   10.28547624    5.91945165   51.21813500   S
atom   10.28547569    5.91945179   48.08254900   S
atom   10.29025559    7.74134061   49.65034200  Mo
atom   -3.93088724    8.65137644   51.21813200   S
atom   -3.93088850    8.65137726   48.08255100   S
atom    8.71605026   10.47325310   49.65034300  Mo
atom   -5.50507969   11.38332036   51.21811400   S
atom   -5.50508033   11.38331954   48.08257000   S
atom    7.14183663   13.20523403   49.65034100  Mo
atom    0.79169570    0.45556219   51.21812200   S
atom    0.79169578    0.45556260   48.08256100   S
atom   13.44114097    2.27745360   49.65034100  Mo
atom   -0.78250346    3.18751143   51.21812200   S
atom   -0.78250283    3.18751225   48.08256100   S
atom   11.86441475    5.00942101   49.65034200  Mo
atom   -2.35668845    5.91943717   51.21811000   S
atom   -2.35668782    5.91943581   48.08257300   S
atom   -2.35194097    7.74135481   49.65034000  Mo
atom   -0.77033569    8.65137166   51.21811900   S
atom   -0.77033482    8.65137153   48.08256400   S
atom   -3.92611951   10.47326717   49.65034200  Mo
atom   -2.34453429   11.38332404   51.21811300   S
atom   -2.34453532   11.38332473   48.08257100   S
atom   -5.50030514   13.20522502   49.65034100  Mo
atom    3.95223659    0.45556465   51.21813500   S
atom    3.95223730    0.45556424   48.08254900   S
atom    0.79644275    2.27746330   49.65034200  Mo
atom    2.37804935    3.18750692   51.21811100   S
atom    2.37804911    3.18750842   48.08257400   S
atom   -0.77771967    5.00941322   49.65034300  Mo
atom    0.80385175    5.91944797   51.21813700   S
atom    0.80385254    5.91944687   48.08254800   S
atom    0.80862367    7.74133774   49.65034100  Mo
atom    2.39020615    8.65137603   51.21812900   S
atom    2.39020663    8.65137713   48.08255600   S
atom   -0.76558342   10.47327359   49.65034000  Mo
atom    0.81601164   11.38331749   51.21812000   S
atom    0.81601330   11.38331817   48.08256400   S
atom   -2.33976776   13.20524237   49.65034300  Mo
atom    7.11278673    0.45556833   51.21813500   S
atom    7.11278705    0.45556724   48.08254900   S
atom    3.95701088    2.27745497   49.65034100  Mo
atom    5.53858978    3.18751402   51.21811500   S
atom    5.53858962    3.18751402   48.08256800   S
atom    2.38279374    5.00941841   49.65034400  Mo
atom    3.96439056    5.91943704   51.21812700   S
atom    3.96438898    5.91943704   48.08255800   S
