# 
# This is the geometry file that corresponds to the current relaxation step.
# If you do not want this file to be written, set the "write_restart_geometry" flag to .false.
#  aims_uuid : F8B25D79-CA14-4195-A487-BE91E2EB7781                                
# 
  set_vacuum_level        52.830000
lattice_vector      3.28869512     -0.00046916     -0.00850377
lattice_vector     -1.64471437      2.84782270      0.01013614
lattice_vector      0.00005779     -0.00003473     99.63748923
atom      -0.00023850      0.94924272      2.64857113 W
atom       1.64851207      1.89465428      4.33470956 Se
atom       1.63981480      1.90161126      0.95783850 Se
# 
# What follows is the current estimated Hessian matrix constructed by the BFGS algorithm.
# This is NOT the true Hessian matrix of the system.
# If you do not want this information here, switch it off using the "hessian_to_restart_geometry" keyword.
# 
trust_radius             0.0500000007
hessian_file
