# 
# This is the geometry file that corresponds to the current relaxation step.
# If you do not want this file to be written, set the "write_restart_geometry" flag to .false.
#  aims_uuid : AF42BCF5-EEB1-45B9-A48D-F79B7773765B                                
# 
  set_vacuum_level        52.830000
lattice_vector      3.31000000      0.00000000      0.00000000
lattice_vector     -1.65500000      2.86654409      0.00000000
lattice_vector      0.00000000      0.00000000    100.33000000
atom       0.00000000      0.95551470      2.66500000 W
atom       1.65500000      1.91102939      4.31382217 Se
atom       1.65500000      1.91102939      1.01617783 Se
# 
# What follows is the current estimated Hessian matrix constructed by the BFGS algorithm.
# This is NOT the true Hessian matrix of the system.
# If you do not want this information here, switch it off using the "hessian_to_restart_geometry" keyword.
# 
