#
# temporary structure-file for finite-difference calculation of forces
# displacement  -0.0025 of \# atom    16 direction     1
#
lattice_vector   15.83905019   -0.00078618    0.00218770
lattice_vector   -7.92011750   13.71653974    0.00218443
lattice_vector   -0.00002710   -0.00004826   99.87375975
atom   -0.00818230    0.90225991    2.59686175   W
atom    1.57841503    1.79983787    4.16976019   S
atom    1.57883439    1.80052575    1.02477820   S
atom   -1.57036136    3.66570936    2.59733334   W
atom    0.03049877    4.58958239    4.15677247   S
atom    0.03086682    4.59028756    1.03875464   S
atom   -3.18279542    6.40007739    2.59776243   W
atom   -1.61190276    7.32482521    4.17068929   S
atom   -1.61150072    7.32551465    1.02566653   S
atom   -4.75214426    9.14811640    2.59825160   W
atom   -3.17603755   10.06272306    4.17923103   S
atom   -3.17572195   10.06347243    1.01803189   S
atom   -6.33293926   11.88581198    2.59874566   W
atom   -4.75245344   12.79285096    4.17972023   S
atom   -4.75209346   12.79352083    1.01855232   S
atom    3.16778781    0.89338424    2.59732172   W
atom    4.75670641    1.79713053    4.17029400   S
atom    4.75720914    1.80027461    1.02524911   S
atom    1.62577288    3.63448571    2.59767647   W
atom    3.16752662    4.51652899    4.16951923   S
atom    3.16795606    4.51715127    1.02663315   S
atom    0.00052378    6.44891278    2.59818209   W
atom    1.53564319    7.34244758    4.17011635   S
atom    1.53599249    7.34317595    1.02718696   S
atom   -1.60244659    9.15471820    2.59858621   W
atom   -0.02291339   10.07703881    4.17161110   S
atom   -0.02240070   10.07784357    1.02649775   S
atom   -3.17157895   11.88567269    2.59909537   W
atom   -1.58871069   12.79910449    4.17938389   S
atom   -1.58828067   12.79987965    1.01973010   S
atom    6.34375901    0.90191118    2.59782357   W
atom    7.91850067    1.83277322    4.17368505   S
atom    7.91892270    1.83348348    1.02286982   S
atom    4.70963265    3.63421752    2.59815736   W
atom    6.30443511    4.58905822    4.15773190   S
atom    6.30489166    4.58989226    1.03967479   S
atom    4.79897711    7.34211702    4.17085777   S
atom    4.79907117    7.34261778    1.02801128   S
atom    1.54227846    9.11936168    2.59912940   W
atom    3.16703793   10.02233956    4.15864950   S
atom    3.16752969   10.02305404    1.04063247   S
atom   -0.00703296   11.90054273    2.59955555   W
atom    1.58686640   12.79821113    4.17546641   S
atom    1.58734613   12.79889052    1.02465016   S
atom    9.50328908    0.91385031    2.59827085   W
atom   11.08712782    1.82789473    4.17368435   S
atom   11.08752129    1.82857082    1.02364773   S
atom    7.90569272    3.66513803    2.59867521   W
atom    9.49859965    4.56945954    4.17450983   S
atom    9.49896241    4.57022813    1.02367151   S
atom    6.33443057    6.44844668    2.59927888   W
atom    7.94650382    7.32419764    4.17213148   S
atom    7.94681119    7.32491802    1.02713658   S
atom    4.79224406    9.11898059    2.59971014   W
atom    6.35709624   10.07663400    4.17253947   S
atom    6.35745480   10.07727265    1.02759073   S
atom    3.16727589   11.87131779    2.60007916   W
atom    4.74728729   12.79804304    4.17588045   S
atom    4.74766977   12.79873286    1.02508072   S
atom   12.67132557    0.91372536    2.59868865   W
atom   14.25572808    1.83253001    4.17449642   S
atom   14.25608114    1.83325118    1.02368350   S
atom   11.08718140    3.65720346    2.59906711   W
atom   12.67536024    4.56937230    4.17492363   S
atom   12.67577871    4.57010069    1.02412029   S
atom    9.51779714    6.39937593    2.59956698   W
atom   11.08683343    7.31902841    4.17981335   S
atom   11.08719807    7.31979021    1.02018575   S
atom    7.93718759    9.15410992    2.60004309   W
atom    9.51040906   10.06206448    4.18105928   S
atom    9.51079594   10.06281094    1.01991971   S
atom    6.34155691   11.90014799    2.60046044   W
atom    7.92279595   12.79872536    4.18068440   S
atom    7.92322794   12.79933800    1.02107785   S
