# 
# This is the geometry file that corresponds to the current relaxation step.
# If you do not want this file to be written, set the "write_restart_geometry" flag to .false.
#  aims_uuid : BCEB29F4-B2E2-45AD-A9D2-F914285FBF64                                
# 
  set_vacuum_level        54.042496
lattice_vector     15.90000000      0.00000000      0.00000000
lattice_vector     -7.95000000     13.76980390      0.00000000
lattice_vector      0.00000000      0.00000000    100.00000000
atom       1.58943182      0.91758244      3.07736300 Mo
atom      -0.00168161      1.83567067      4.64050064 S
atom       0.00062572      1.83270531      1.50943415 S
atom       0.00142031      3.66856875      3.07235632 Mo
atom      -1.59105810      4.58971209      4.63655081 S
atom      -1.58953278      4.59059845      1.50830601 S
atom      -1.59254484      6.42940357      3.07236319 Mo
atom      -3.18143907      7.34318410      4.64049645 S
atom      -3.18284409      7.34666947      1.50944446 S
atom      -3.18099460      9.18017891      3.07736847 Mo
atom      -4.77000789     10.09792239      4.64391125 S
atom      -4.77000820     10.09951819      1.51298395 S
atom      -4.76999204     11.93422941      3.07910802 Mo
atom      -6.36029073     12.85238032      4.64390504 S
atom      -6.35891183     12.85157508      1.51298833 S
atom       4.77058446      0.91756024      3.07736318 Mo
atom       3.18000737      1.83967135      4.64065383 S
atom       3.18000737      1.83454086      1.51266629 S
atom       3.17998634      3.67475050      3.07299223 Mo
atom       1.58508883      4.59052073      4.63776706 S
atom       1.58782927      4.57686828      1.49883721 S
atom       1.56219122      6.41022887      3.06225249 Mo
atom      -0.00227149      7.33994169      4.63776025 S
atom      -0.01273485      7.34915473      1.49886206 S
atom       0.00209054      9.17906975      3.07300952 Mo
atom      -1.58714435     10.09659738      4.64066617 S
atom      -1.59157431     10.09915926      1.51267578 S
atom      -1.59040481     11.93512680      3.07737151 Mo
atom      -3.17971081     12.85237715      4.64391786 S
atom      -3.18108990     12.85157223      1.51297557 S
atom       7.95038374      0.91858837      3.07421116 Mo
atom       6.36168367      1.83568241      4.64049402 S
atom       6.35937664      1.83271713      1.50944165 S
atom       6.35857936      3.66858735      3.07235667 Mo
atom       4.77490482      4.59051744      4.63775805 S
atom       4.77216432      4.57686902      1.49884740 S
atom       4.79780123      6.41024652      3.06225796 Mo
atom       3.17998827      7.34424762      4.59751112 S
atom       3.18000008      7.34414062      6.54146771 S
atom       3.17999460      7.34428188      1.52982769 S
atom       3.18001589      9.21234994      3.06227860 Mo
atom       1.59262942     10.10237193      4.63778455 S
atom       1.57944119     10.10683582      1.49886907 S
atom       1.58602821     11.93485873      3.07238012 Mo
atom       0.00024091     12.85401462      4.64051397 S
atom      -0.00346862     12.85348327      1.50944437 S
atom      11.12999215      0.91886270      3.07197215 Mo
atom       9.54108624      1.83700521      4.63783563 S
atom       9.53952923      1.83609792      1.50738528 S
atom       9.54042320      3.67210688      3.07196370 Mo
atom       7.95106302      4.58971473      4.63654490 S
atom       7.94953805      4.59060067      1.50831292 S
atom       7.95254354      6.42942451      3.07236283 Mo
atom       6.36227167      7.33993336      4.63777312 S
atom       6.37273090      7.34914496      1.49885056 S
atom       6.35791109      9.17904519      3.07300960 Mo
atom       4.76738038     10.10237864      4.63778965 S
atom       4.78056833     10.10684136      1.49886450 S
atom       4.77396643     11.93485522      3.07237972 Mo
atom       3.18000074     12.85343875      4.63656041 S
atom       3.18000055     12.85166527      1.50833209 S
atom      14.30960663      0.91862034      3.07421079 Mo
atom      12.71890251      1.83700126      4.63784031 S
atom      12.72045930      1.83609356      1.50738009 S
atom      12.71959076      3.67210182      3.07196328 Mo
atom      11.13000131      4.58907028      4.63783420 S
atom      11.13000084      4.59087242      1.50737741 S
atom      11.13000545      6.42585578      3.07420732 Mo
atom       9.54144598      7.34317417      4.64050391 S
atom       9.54285104      7.34665975      1.50943748 S
atom       9.54097643      9.18015506      3.07736864 Mo
atom       7.94714233     10.09660078      4.64066561 S
atom       7.95157233     10.09916263      1.51267683 S
atom       7.95039858     11.93512077      3.07737156 Mo
atom       6.35975781     12.85402379      4.64050338 S
atom       6.36346748     12.85349217      1.50945484 S
# 
# What follows is the current estimated Hessian matrix constructed by the BFGS algorithm.
# This is NOT the true Hessian matrix of the system.
# If you do not want this information here, switch it off using the "hessian_to_restart_geometry" keyword.
# 
trust_radius             0.0009350673
hessian_file
