# 
# This is the geometry file that corresponds to the current relaxation step.
# If you do not want this file to be written, set the "write_restart_geometry" flag to .false.
#  aims_uuid : 31D60F62-BE66-457D-AE71-96E82A446569                                
# 
  set_vacuum_level        54.042496
lattice_vector     15.90000000      0.00000000      0.00000000
lattice_vector     -7.95000000     13.76980390      0.00000000
lattice_vector      0.00000000      0.00000000    100.00000000
atom       1.58944120      0.91757676      3.07737730 Mo
atom      -0.00166959      1.83566884      4.64060043 S
atom       0.00062993      1.83270828      1.50936616 S
atom       0.00142544      3.66857599      3.07238141 Mo
atom      -1.59105499      4.58971777      4.63666105 S
atom      -1.58952467      4.59060636      1.50823057 S
atom      -1.59253883      6.42941096      3.07238703 Mo
atom      -3.18143734      7.34319557      4.64059901 S
atom      -3.18284284      7.34667225      1.50937402 S
atom      -3.18098323      9.18018496      3.07738334 Mo
atom      -4.77000397     10.09792590      4.64400627 S
atom      -4.77000450     10.09951648      1.51290176 S
atom      -4.76999936     11.93422652      3.07912065 Mo
atom      -6.36028609     12.85237806      4.64400302 S
atom      -6.35891217     12.85157462      1.51290262 S
atom       4.77057160      0.91756997      3.07737718 Mo
atom       3.18000584      1.83966582      4.64075033 S
atom       3.18000576      1.83453062      1.51258276 S
atom       3.17999312      3.67474630      3.07299552 Mo
atom       1.58512871      4.59057602      4.63782764 S
atom       1.58781060      4.57683519      1.49873416 S
atom       1.56220605      6.41025137      3.06216288 Mo
atom      -0.00220750      7.33994531      4.63783193 S
atom      -0.01277791      7.34915244      1.49874710 S
atom       0.00209433      9.17906139      3.07301303 Mo
atom      -1.58714449     10.09659690      4.64076188 S
atom      -1.59158106     10.09916224      1.51259596 S
atom      -1.59041364     11.93511420      3.07738659 Mo
atom      -3.17971590     12.85237828      4.64400721 S
atom      -3.18109064     12.85157524      1.51289816 S
atom       7.95038130      0.91858779      3.07422967 Mo
atom       6.36167226      1.83567564      4.64059658 S
atom       6.35937271      1.83271550      1.50937024 S
atom       6.35857309      3.66858829      3.07238157 Mo
atom       4.77486451      4.59057490      4.63782706 S
atom       4.77218385      4.57683675      1.49873780 S
atom       4.79778312      6.41025799      3.06216703 Mo
atom       3.17999120      7.34424369      4.59751906 S
atom       3.17999824      7.34414496      6.54138352 S
atom       3.17999541      7.34427785      1.52961462 S
atom       3.18001167      9.21232013      3.06218662 Mo
atom       1.59265598     10.10231332      4.63784782 S
atom       1.57941896     10.10687409      1.49876294 S
atom       1.58603271     11.93485534      3.07240634 Mo
atom       0.00023085     12.85400604      4.64061448 S
atom      -0.00347008     12.85347827      1.50937633 S
atom      11.12999547      0.91884396      3.07198057 Mo
atom       9.54109218      1.83700829      4.63794060 S
atom       9.53952906      1.83609747      1.50730832 S
atom       9.54040483      3.67211347      3.07197310 Mo
atom       7.95105646      4.58971768      4.63665696 S
atom       7.94952630      4.59060628      1.50823548 S
atom       7.95253678      6.42942241      3.07238828 Mo
atom       6.36220824      7.33993909      4.63783719 S
atom       6.37277397      7.34914560      1.49874495 S
atom       6.35791055      9.17904567      3.07301485 Mo
atom       4.76734969     10.10231829      4.63785274 S
atom       4.78058804     10.10687775      1.49875834 S
atom       4.77396708     11.93485504      3.07240577 Mo
atom       3.18000123     12.85343289      4.63667455 S
atom       3.18000086     12.85165227      1.50825384 S
atom      14.30961300      0.91861021      3.07422940 Mo
atom      12.71889722      1.83700392      4.63794473 S
atom      12.72046005      1.83609257      1.50730400 S
atom      12.71960095      3.67211024      3.07197201 Mo
atom      11.13000247      4.58906515      4.63793975 S
atom      11.13000190      4.59087426      1.50730032 S
atom      11.13000289      6.42586254      3.07422639 Mo
atom       9.54144162      7.34318861      4.64060369 S
atom       9.54284676      7.34666559      1.50937015 S
atom       9.54097597      9.18017139      3.07738449 Mo
atom       7.94714130     10.09660309      4.64076329 S
atom       7.95157736     10.09916853      1.51259573 S
atom       7.95040875     11.93511330      3.07738831 Mo
atom       6.35977099     12.85401153      4.64060741 S
atom       6.36347340     12.85348331      1.50938405 S
# 

# This is NOT the true Hessian matrix of the system.
# If you do not want this information here, switch it off using the "hessian_to_restart_geometry" keyword.
# 
