# 
# This is the geometry file that corresponds to the current relaxation step.
# If you do not want this file to be written, set the "write_restart_geometry" flag to .false.
#  aims_uuid : 1138B45D-0FCE-4ECD-A7E6-D829B4193DCC                                
# 
  set_vacuum_level        52.405564
lattice_vector     16.44347560      0.00000000      0.00000000
lattice_vector     -8.22357185     14.23911350      0.00000000
lattice_vector      0.00000000      0.00000000     99.63748923
atom_frac       0.03289634      0.06623302      0.02571865 W
atom_frac       0.16948518      0.13633742      0.04214968 Se
atom_frac       0.16408136      0.13029453      0.00837099 Se
atom_frac       0.03447467      0.26704143      0.02575955 W
atom_frac       0.17069574      0.33347065      0.04236396 Se
atom_frac       0.16785511      0.33632629      0.00866634 Se
atom_frac       0.03238830      0.46670207      0.02607927 W
atom_frac       0.16441779      0.53366304      0.04326637 Se
atom_frac       0.16575900      0.53502284      0.00921022 Se
atom_frac       0.03314519      0.66684038      0.02607902 W
atom_frac       0.16595747      0.73485401      0.04308141 Se
atom_frac       0.16645757      0.73302922      0.00914363 Se
atom_frac       0.03344905      0.86692609      0.02592477 W
atom_frac       0.16752509      0.93539985      0.04271825 Se
atom_frac       0.16568352      0.93158166      0.00876824 Se
atom_frac       0.23333081      0.06646402      0.02535996 W
atom_frac       0.36675602      0.13500492      0.04224779 Se
atom_frac       0.36656998      0.13078004      0.00837706 Se
atom_frac       0.23569455      0.26697247      0.02466390 W
atom_frac       0.37728625      0.35121477      0.03959042 Se
atom_frac       0.36143106      0.32205829      0.00660797 Se
atom_frac       0.23220532      0.46932437      0.02618196 W
atom_frac       0.36095335      0.53748726      0.04427672 Se
atom_frac       0.36922554      0.52810138      0.01119776 Se
atom_frac       0.23245784      0.66732653      0.02634851 W
atom_frac       0.36431691      0.73699517      0.04355619 Se
atom_frac       0.36671004      0.73194964      0.00958403 Se
atom_frac       0.23323645      0.86708565      0.02593146 W
atom_frac       0.36629220      0.93514768      0.04293266 Se
atom_frac       0.36652096      0.93200436      0.00894477 Se
atom_frac       0.43356914      0.06626900      0.02569977 W
atom_frac       0.56625640      0.13357300      0.04277449 Se
atom_frac       0.56743795      0.13263799      0.00887324 Se
atom_frac       0.43294295      0.26594084      0.02496016 W
atom_frac       0.56404513      0.33266603      0.04249395 Se
atom_frac       0.56845340      0.33472928      0.00863073 Se
atom_frac       0.57295205      0.53579706      0.04401223 Se
atom_frac       0.55620788      0.52449652      0.01112845 Se
atom_frac       0.42947775      0.66599288      0.02735054 W
atom_frac       0.56626535      0.73283914      0.04385653 Se
atom_frac       0.56318051      0.72698713      0.01031660 Se
atom_frac       0.43298723      0.86738785      0.02619497 W
atom_frac       0.56643286      0.93393903      0.04316877 Se
atom_frac       0.56660786      0.93110568      0.00930720 Se
atom_frac       0.63326326      0.06612623      0.02601004 W
atom_frac       0.76684318      0.13318666      0.04293590 Se
atom_frac       0.76659525      0.13269585      0.00906728 Se
atom_frac       0.63326287      0.26661412      0.02577562 W
atom_frac       0.76592834      0.33241211      0.04290796 Se
atom_frac       0.76754694      0.33357689      0.00900841 Se
atom_frac       0.63611096      0.46732924      0.02600247 W
atom_frac       0.76764112      0.53301777      0.04322261 Se
atom_frac       0.76882933      0.53442064      0.00915749 Se
atom_frac       0.63461127      0.66447485      0.02733348 W
atom_frac       0.77132070      0.73606882      0.04347863 Se
atom_frac       0.76382086      0.73098285      0.00958356 Se
atom_frac       0.63260888      0.86500638      0.02652856 W
atom_frac       0.76774282      0.93393836      0.04316281 Se
atom_frac       0.76464866      0.93120877      0.00929496 Se
atom_frac       0.83338016      0.06625151      0.02600995 W
atom_frac       0.96802776      0.13399654      0.04277402 Se
atom_frac       0.96594992      0.13298352      0.00888585 Se
atom_frac       0.83355662      0.26646420      0.02598499 W
atom_frac       0.96734139      0.33260550      0.04288862 Se
atom_frac       0.96674747      0.33374507      0.00900962 Se
atom_frac       0.83380353      0.46639477      0.02608356 W
atom_frac       0.96644837      0.53345880      0.04306997 Se
atom_frac       0.96661837      0.53364624      0.00908861 Se
atom_frac       0.83391047      0.66670318      0.02630662 W
atom_frac       0.96797770      0.73453148      0.04305889 Se
atom_frac       0.96594637      0.73284556      0.00913367 Se
atom_frac       0.83392051      0.86699354      0.02617063 W
atom_frac       0.96851829      0.93490947      0.04292572 Se
atom_frac       0.96522003      0.93185045      0.00894705 Se
# 
# What follows is the current estimated Hessian matrix constructed by the BFGS algorithm.
# This is NOT the true Hessian matrix of the system.
# If you do not want this information here, switch it off using the "hessian_to_restart_geometry" keyword.
# 
trust_radius             0.0010424139
hessian_file
