#
# temporary structure-file for finite-difference calculation of forces
# displacement  -0.0025 of \# atom    56 direction     2
#
lattice_vector   15.83905019    0.00000000    0.00000000
lattice_vector   -7.92011750   13.71653974    0.00000000
lattice_vector    0.00000000    0.00000000   99.87375975
atom   -0.01133457    0.90542112    2.60450231  Mo
atom    1.58216453    1.81997532    4.15832389   S
atom    1.57067595    1.79487092    1.03791565   S
atom   -1.57561710    3.66573853    2.59949014  Mo
atom    0.02622079    4.57979249    4.15765340   S
atom    0.01733388    4.59595376    1.04187442   S
atom   -3.18411083    6.40040889    2.59414279  Mo
atom   -1.62317148    7.32578674    4.16110820   S
atom   -1.59472833    7.32285481    1.04070910   S
atom   -4.75509837    9.14865627    2.59914112  Mo
atom   -3.17786454   10.06464672    4.16831996   S
atom   -3.17849075   10.06354934    1.03012225   S
atom   -6.33655754   11.88745559    2.59921725  Mo
atom   -4.75597650   12.79512227    4.16848480   S
atom   -4.75454371   12.79545125    1.03025303   S
atom    3.16473754    0.89646699    2.59957906  Mo
atom    4.75895087    1.79441404    4.16136502   S
atom    4.74704932    1.82046914    1.04098150   S
atom    1.61359220    3.64377464    2.57232409  Mo
atom    3.20134345    4.51844953    4.16371157   S
atom    3.12772531    4.52055051    1.03769866   S
atom    0.00011060    6.43846746    2.62741626  Mo
atom    1.51588447    7.31161596    4.16207603   S
atom    1.55282158    7.37541187    1.03647234   S
atom   -1.60389694    9.15524658    2.59922668  Mo
atom   -0.01245249   10.06360402    4.15774950   S
atom   -0.02919377   10.08674175    1.03733062   S
atom   -3.17392878   11.88746535    2.59929777  Mo
atom   -1.59114205   12.80344919    4.16785507   S
atom   -1.58923926   12.80012139    1.03074181   S
atom    6.34076945    0.90539574    2.59429619  Mo
atom    7.91469971    1.83427569    4.16175996   S
atom    7.91880393    1.83500630    1.03201751   S
atom    4.71543573    3.64385515    2.62755625  Mo
atom    6.31205000    4.59632244    4.15704931   S
atom    6.30246532    4.57967636    1.04137001   S
atom    4.77564666    7.37515894    4.16066643   S
atom    4.81438450    7.31249055    1.03466209   S
atom    1.55094092    9.12477292    2.57105922  Mo
atom    3.15518142   10.03113863    4.15659926   S
atom    3.17360124   10.03150036    1.04076339   S
atom   -0.00833224   11.90122739    2.60429395  Mo
atom    1.58579578   12.80314147    4.16638405   S
atom    1.58279538   12.80002915    1.03664685   S
atom    9.50218854    0.91689073    2.59922181  Mo
atom   11.08417849    1.83020732    4.16516100   S
atom   11.08419250    1.83023321    1.03327584   S
atom    7.90468855    3.66579264    2.59921475  Mo
atom    9.49722266    4.56902916    4.16642310   S
atom    9.49581587    4.57294835    1.03667356   S
atom    6.32886727    6.43865883    2.57083337  Mo
atom    7.92374037    7.32299037    4.15742411   S
atom    7.95230102    7.32573363    1.03706509   S
atom    4.77792202    9.12487876    2.62610702  Mo
atom    6.35764017   10.08651374    4.16054455   S
atom    6.34164459   10.06402087    1.04009501   S
atom    3.16423289   11.87569360    2.59645106  Mo
atom    4.74548738   12.79980749    4.16153945   S
atom    4.74274968   12.80334092    1.03180350   S
atom   12.66625147    0.91687850    2.59921966  Mo
atom   14.24941385    1.83490208    4.16664180   S
atom   14.25384683    1.83429733    1.03688936   S
atom   11.08408142    3.65693543    2.59921562  Mo
atom   12.67219306    4.57306292    4.16179384   S
atom   12.67100161    4.56890937    1.03205137   S
atom    9.51316207    6.40044146    2.60413629  Mo
atom   11.08595153    7.31995524    4.16769551   S
atom   11.08211843    7.31994169    1.03058719   S
atom    7.93273586    9.15531926    2.59884691  Mo
atom    9.50722356   10.06341372    4.16817971   S
atom    9.50679698   10.06482274    1.02996152   S
atom    6.33688681   11.90125833    2.59393441  Mo
atom    7.91759750   12.79988956    4.16778093   S
atom    7.91982112   12.80374068    1.03066135   S
