# 
# This is the geometry file that corresponds to the current relaxation step.
# If you do not want this file to be written, set the "write_restart_geometry" flag to .false.
#  aims_uuid : F34A509A-31E8-4614-A549-265706178B9C                                
# 
lattice_vector      3.15311944      0.00000000     -0.00000000
lattice_vector      0.00000000      3.15311953     -0.00000001
lattice_vector     -0.00000000     -0.00000001      3.15311954
atom      -0.00000032      0.00000013      0.00000033 W
atom       1.57656844      1.57656804      1.57655102 W
# 
# What follows is the current estimated Hessian matrix constructed by the BFGS algorithm.
# This is NOT the true Hessian matrix of the system.
# If you do not want this information here, switch it off using the "hessian_to_restart_geometry" keyword.
# 
