&CONTROL
calculation = "scf"
pseudo_dir = "" ! insert pseudopotential directory
prefix = "unfold"
disk_io = "low"
/

&SYSTEM
ibrav = 0
nat = 76
ntyp = 2
ecutwfc = 30
!noncolin = .true.
!lspinorb = .true.
/

&ELECTRONS
/

ATOMIC_SPECIES
S 1. ! add S pseudo name
Mo 1. ! add Mo pseudo name

CELL_PARAMETERS angstrom
15.90000000	0.00000000	0.00000000
-7.95000000	13.76980390	0.00000000
0.00000000	0.00000000	100.00000000

ATOMIC_POSITIONS angstrom
Mo	1.58939428	0.91770622	3.07863823
S	-0.00139656	1.83627283	4.63717380
S	0.00039120	1.83228139	1.51529589
Mo	0.00170589	3.66869505	3.07293438
S	-1.59022062	4.59019026	4.63291525
S	-1.58988938	4.59037579	1.51403790
Mo	-1.59230562	6.42961731	3.07292507
S	-3.18077741	7.34311914	4.63715156
S	-3.18332324	7.34666821	1.51528488
Mo	-3.18090175	9.18011202	3.07862817
S	-4.76999472	10.09779415	4.64066596
S	-4.76999894	10.09956376	1.51898278
Mo	-4.77001079	11.93423333	3.08057042
S	-6.36038774	12.85243832	4.64067010
S	-6.35886942	12.85155228	1.51899669
Mo	4.77057386	0.91769956	3.07862852
S	3.18000881	1.84087018	4.63677142
S	3.18000176	1.83383183	1.51813094
Mo	3.17998226	3.67521218	3.07263208
S	1.58600110	4.59305406	4.63235265
S	1.58738795	4.57488270	1.50183627
Mo	1.56153590	6.40988448	3.05792059
S	0.00037086	7.33944317	4.63234507
S	-0.01466621	7.34974961	1.50183144
Mo	0.00248718	9.17882892	3.07263925
S	-1.58609101	10.09599418	4.63676675
S	-1.59216831	10.09950861	1.51813394
Mo	-1.59030984	11.93508346	3.07863273
S	-3.17959676	12.85243868	4.64066575
S	-3.18112705	12.85155050	1.51898336
Mo	7.95038492	0.91861276	3.07583071
S	6.36140900	1.83627053	4.63715539
S	6.35961452	1.83227938	1.51528060
Mo	6.35826733	3.66869634	3.07291678
S	4.77401170	4.59304321	4.63233311
S	4.77261398	4.57488452	1.50183006
Mo	4.79844338	6.40988378	3.05791388
S	3.18000491	7.34423564	4.58042887
S	3.17999370	7.34412916	6.52020239
S	3.18000426	7.34427901	1.52965277
Mo	3.17998564	9.21309191	3.05794935
S	1.59437544	10.10033520	4.63236256
S	1.57795646	10.10821542	1.50185090
Mo	1.58597280	11.93455963	3.07294546
S	0.00062404	12.85347264	4.63716677
S	-0.00370980	12.85389716	1.51529238
Mo	11.12999126	0.91873922	3.07364748
S	9.54104125	1.83696658	4.63499404
S	9.53960233	1.83611828	1.51373060
Mo	9.54030003	3.67217099	3.07362904
S	7.95023420	4.59019273	4.63290227
S	7.94990674	4.59038651	1.51402834
Mo	7.95227903	6.42962795	3.07292178
S	6.35964382	7.33944932	4.63234515
S	6.37468003	7.34975504	1.50183063
Mo	6.35748939	9.17883088	3.07264890
S	4.76563600	10.10032474	4.63237899
S	4.78205933	10.10822068	1.50185972
Mo	4.77400497	11.93455594	3.07295994
S	3.18000614	12.85247208	4.63293653
S	3.18001530	12.85208134	1.51405735
Mo	14.30959077	0.91861451	3.07584805
S	12.71896816	1.83696727	4.63500534
S	12.72042109	1.83611845	1.51373859
Mo	12.71967988	3.67216904	3.07363732
S	11.13000642	4.58913339	4.63498834
S	11.13001294	4.59080229	1.51372463
Mo	11.12998438	6.42585736	3.07582482
S	9.54078745	7.34311914	4.63715506
S	9.54333556	7.34667404	1.51528298
Mo	9.54087296	9.18011056	3.07863318
S	7.94610209	10.09598991	4.63678002
S	7.95217935	10.09951229	1.51814335
Mo	7.95027793	11.93508120	3.07864726
S	6.35938576	12.85347092	4.63718492
S	6.36372246	12.85390046	1.51530946

K_POINTS automatic
2 2 1 0 0 0