#=======================================================
# FHI-aims file: geometry_monolayer.in
# Created using the Atomic Simulation Environment (ASE)
# Wed Jun  2 16:13:13 2021
#=======================================================
lattice_vector 3.3199999999999998 0.0000000000000000 0.0000000000000000 
lattice_vector -1.6599999999999999 2.8752043405643359 0.0000000000000000 
lattice_vector 0.0000000000000000 -0.0000000000000000 100.000 
atom 0.0000000000000000 0.9584014468547787 2.6650000000000000 Mo
atom 1.6599999999999997 1.9168028937095571 4.3300000000000001 Se
atom 1.6599999999999997 1.9168028937095571 1.0000000000000000 Se
