#=======================================================
# FHI-aims file: geometry_supercell.in
# Created using the Atomic Simulation Environment (ASE)
# Wed Jun  2 16:13:13 2021
#=======================================================
lattice_vector 16.5999999999999979 0.0000000000000000 0.0000000000000000 
lattice_vector -8.2999999999999989 14.3760217028216797 0.0000000000000000 
lattice_vector 0.0000000000000000 0.000000000000000   100.000 
atom -0.0000000000000000 0.9584014468547788 2.6650000000000000 Mo
atom 1.6599999999999997 1.9168028937095574 4.3300000000000001 Se
atom 1.6599999999999997 1.9168028937095574 1.0000000000000000 Se
atom -1.6599999999999999 3.8336057874191152 2.6650000000000000 Mo
atom -0.0000000000000004 4.7920072342738926 4.3300000000000001 Se
atom -0.0000000000000004 4.7920072342738926 1.0000000000000000 Se
atom -3.3199999999999998 6.7088101279834502 2.6650000000000000 Mo
atom -1.6600000000000004 7.6672115748382295 4.3300000000000001 Se
atom -1.6600000000000004 7.6672115748382295 1.0000000000000000 Se
atom -4.9800000000000004 9.5840144685477888 2.6650000000000000 Mo
atom -3.3200000000000012 10.5424159154025681 4.3300000000000001 Se
atom -3.3200000000000012 10.5424159154025681 1.0000000000000000 Se
atom -6.6399999999999997 12.4592188091121248 2.6650000000000000 Mo
atom -4.9800000000000004 13.4176202559669004 4.3300000000000001 Se
atom -4.9800000000000004 13.4176202559669004 1.0000000000000000 Se
atom 3.3199999999999998 0.9584014468547788 2.6650000000000000 Mo
atom 4.9799999999999986 1.9168028937095574 4.3300000000000001 Se
atom 4.9799999999999986 1.9168028937095574 1.0000000000000000 Se
atom 1.6599999999999997 3.8336057874191152 2.6650000000000000 Mo
atom 3.3199999999999990 4.7920072342738926 4.3300000000000001 Se
atom 3.3199999999999990 4.7920072342738926 1.0000000000000000 Se
atom 0.0000000000000002 6.7088101279834502 2.6650000000000000 Mo
atom 1.6599999999999990 7.6672115748382295 4.3300000000000001 Se
atom 1.6599999999999990 7.6672115748382295 1.0000000000000000 Se
atom -1.6600000000000001 9.5840144685477888 2.6650000000000000 Mo
atom -0.0000000000000022 10.5424159154025681 4.3300000000000001 Se
atom -0.0000000000000022 10.5424159154025681 1.0000000000000000 Se
atom -3.3199999999999998 12.4592188091121248 2.6650000000000000 Mo
atom -1.6600000000000006 13.4176202559669004 4.3300000000000001 Se
atom -1.6600000000000006 13.4176202559669004 1.0000000000000000 Se
atom 6.6399999999999997 0.9584014468547788 2.6650000000000000 Mo
atom 8.2999999999999972 1.9168028937095574 4.3300000000000001 Se
atom 8.2999999999999972 1.9168028937095574 1.0000000000000000 Se
atom 4.9799999999999995 3.8336057874191152 2.6650000000000000 Mo
atom 6.6399999999999988 4.7920072342738926 4.3300000000000001 Se
atom 6.6399999999999988 4.7920072342738926 1.0000000000000000 Se
atom 3.3200000000000003 6.7088101279834502 2.6650000000000000 Mo
atom 4.9799999999999986 7.6672115748382295 4.3300000000000001 Se
atom 4.9799999999999986 7.6672115748382295 1.0000000000000000 Se
atom 1.6599999999999993 9.5840144685477888 2.6650000000000000 Mo
atom 3.3199999999999972 10.5424159154025681 4.3300000000000001 Se
atom 3.3199999999999972 10.5424159154025681 1.0000000000000000 Se
atom -0.0000000000000002 12.4592188091121248 2.6650000000000000 Mo
atom 1.6599999999999988 13.4176202559669004 4.3300000000000001 Se
atom 1.6599999999999988 13.4176202559669004 1.0000000000000000 Se
atom 9.9600000000000009 0.9584014468547788 2.6650000000000000 Mo
atom 11.6199999999999992 1.9168028937095574 4.3300000000000001 Se
atom 11.6199999999999992 1.9168028937095574 1.0000000000000000 Se
atom 8.3000000000000007 3.8336057874191152 2.6650000000000000 Mo
atom 9.9600000000000009 4.7920072342738926 4.3300000000000001 Se
atom 9.9600000000000009 4.7920072342738926 1.0000000000000000 Se
atom 6.6400000000000023 6.7088101279834502 2.6650000000000000 Mo
atom 8.3000000000000007 7.6672115748382295 4.3300000000000001 Se
atom 8.3000000000000007 7.6672115748382295 1.0000000000000000 Se
atom 4.9800000000000013 9.5840144685477888 2.6650000000000000 Mo
atom 6.6399999999999997 10.5424159154025681 4.3300000000000001 Se
atom 6.6399999999999997 10.5424159154025681 1.0000000000000000 Se
atom 3.3200000000000021 12.4592188091121248 2.6650000000000000 Mo
atom 4.9800000000000004 13.4176202559669004 4.3300000000000001 Se
atom 4.9800000000000004 13.4176202559669004 1.0000000000000000 Se
atom 13.2799999999999994 0.9584014468547788 2.6650000000000000 Mo
atom 14.9399999999999995 1.9168028937095574 4.3300000000000001 Se
atom 14.9399999999999995 1.9168028937095574 1.0000000000000000 Se
atom 11.6199999999999992 3.8336057874191152 2.6650000000000000 Mo
atom 13.2800000000000011 4.7920072342738926 4.3300000000000001 Se
atom 13.2800000000000011 4.7920072342738926 1.0000000000000000 Se
atom 9.9599999999999991 6.7088101279834502 2.6650000000000000 Mo
atom 11.6200000000000010 7.6672115748382295 4.3300000000000001 Se
atom 11.6200000000000010 7.6672115748382295 1.0000000000000000 Se
atom 8.2999999999999972 9.5840144685477888 2.6650000000000000 Mo
atom 9.9599999999999991 10.5424159154025681 4.3300000000000001 Se
atom 9.9599999999999991 10.5424159154025681 1.0000000000000000 Se
atom 6.6399999999999988 12.4592188091121248 2.6650000000000000 Mo
atom 8.3000000000000007 13.4176202559669004 4.3300000000000001 Se
atom 8.3000000000000007 13.4176202559669004 1.0000000000000000 Se
