#
lattice_vector  15.66599045 -0.00000000 0.00000000
lattice_vector  -7.83292280 13.56702030 -0.00000000
lattice_vector  0.00000000 0.00000000 99.99930752
#
atom 1.56658774 0.90485975 3.07247772 Mo
atom 0.00001726 1.80931479 4.63270092 S
atom 0.00001726 1.80931479 1.51225253 S
atom 0.00000318 3.61826381 3.07247772 Mo
atom -1.56656730 4.52271885 4.63270092 S
atom -1.56656730 4.52271885 1.51225253 S
atom -1.56658138 6.33166787 3.07247772 Mo
atom -3.13315186 7.23612291 4.63270092 S
atom -3.13315186 7.23612291 1.51225253 S
atom -3.13316594 9.04507193 3.07247772 Mo
atom -4.69973642 9.94952697 4.63270092 S
atom -4.69973642 9.94952697 1.51225253 S
atom -4.69975050 11.75847599 3.07247772 Mo
atom -6.26632098 12.66293103 4.63270092 S
atom -6.26632098 12.66293103 1.51225253 S
atom 4.69978583 0.90485975 3.07247772 Mo
atom 3.13321535 1.80931479 4.63270092 S
atom 3.13321535 1.80931479 1.51225253 S
atom 3.13320127 3.61826381 3.07247772 Mo
atom 1.56663079 4.52271885 4.63270092 S
atom 1.56663079 4.52271885 1.51225253 S
atom 1.56661671 6.33166787 3.07247772 Mo
atom 0.00004623 7.23612291 4.63270092 S
atom 0.00004623 7.23612291 1.51225253 S
atom 0.00003215 9.04507193 3.07247772 Mo
atom -1.56653833 9.94952697 4.63270092 S
atom -1.56653833 9.94952697 1.51225253 S
atom -1.56655241 11.75847599 3.07247772 Mo
atom -3.13312289 12.66293103 4.63270092 S
atom -3.13312289 12.66293103 1.51225253 S
atom 7.83298392 0.90485975 3.07247772 Mo
atom 6.26641344 1.80931479 4.63270092 S
atom 6.26641344 1.80931479 1.51225253 S
atom 6.26639936 3.61826381 3.07247772 Mo
atom 4.69982888 4.52271885 4.63270092 S
atom 4.69982888 4.52271885 1.51225253 S
atom 4.69981480 6.33166787 3.07247772 Mo
atom 3.13324432 7.23612291 4.63270092 S
atom 3.13324432 7.23612291 1.51225253 S
atom 3.13323024 9.04507193 3.07247772 Mo
atom 1.56665976 9.94952697 4.63270092 S
atom 1.56665976 9.94952697 1.51225253 S
atom 1.56664568 11.75847599 3.07247772 Mo
atom 0.00007520 12.66293103 4.63270092 S
atom 0.00007520 12.66293103 1.51225253 S
atom 10.96618201 0.90485975 3.07247772 Mo
atom 9.39961153 1.80931479 4.63270092 S
atom 9.39961153 1.80931479 1.51225253 S
atom 9.39959745 3.61826381 3.07247772 Mo
atom 7.83302697 4.52271885 4.63270092 S
atom 7.83302697 4.52271885 1.51225253 S
atom 7.83301289 6.33166787 3.07247772 Mo
atom 6.26644241 7.23612291 4.63270092 S
atom 6.26644241 7.23612291 1.51225253 S
atom 6.26642833 9.04507193 3.07247772 Mo
atom 4.69985785 9.94952697 4.63270092 S
atom 4.69985785 9.94952697 1.51225253 S
atom 4.69984377 11.75847599 3.07247772 Mo
atom 3.13327329 12.66293103 4.63270092 S
atom 3.13327329 12.66293103 1.51225253 S
atom 14.09938010 0.90485975 3.07247772 Mo
atom 12.53280962 1.80931479 4.63270092 S
atom 12.53280962 1.80931479 1.51225253 S
atom 12.53279554 3.61826381 3.07247772 Mo
atom 10.96622506 4.52271885 4.63270092 S
atom 10.96622506 4.52271885 1.51225253 S
atom 10.96621098 6.33166787 3.07247772 Mo
atom 9.39964050 7.23612291 4.63270092 S
atom 9.39964050 7.23612291 1.51225253 S
atom 9.39962642 9.04507193 3.07247772 Mo
atom 7.83305594 9.94952697 4.63270092 S
atom 7.83305594 9.94952697 1.51225253 S
atom 7.83304186 11.75847599 3.07247772 Mo
atom 6.26647138 12.66293103 4.63270092 S
atom 6.26647138 12.66293103 1.51225253 S
