# 
# This is the geometry file that corresponds to the current relaxation step.
# If you do not want this file to be written, set the "write_restart_geometry" flag to .false.
#  aims_uuid : E1522F55-1163-468A-A1C1-DD297D743F0D                                
# 
  set_vacuum_level        52.633144
lattice_vector     16.23865900      0.00000000      0.00000000
lattice_vector     -8.11989635     14.06215255      0.00000000
lattice_vector      0.00000000      0.00000000     99.93951163
atom_frac       0.03649965      0.07050673      0.02665000 Mo
atom_frac       0.17224846      0.14077467      0.04312275 Se
atom_frac       0.17224846      0.14077467      0.01017725 Se
atom_frac       0.04084779      0.27152637      0.02665000 Mo
atom_frac       0.18280676      0.35149354      0.04273516 Se
atom_frac       0.18280676      0.35149354      0.01056484 Se
atom_frac       0.03642047      0.46859290      0.02665000 Mo
atom_frac       0.17072007      0.53931440      0.04360398 Se
atom_frac       0.17072007      0.53931440      0.00969602 Se
atom_frac       0.03131781      0.66756824      0.02665000 Mo
atom_frac       0.16363904      0.73636925      0.04328447 Se
atom_frac       0.16363904      0.73636925      0.01001553 Se
atom_frac       0.03228902      0.86771195      0.02665000 Mo
atom_frac       0.16634176      0.93622300      0.04316012 Se
atom_frac       0.16634176      0.93622300      0.01013988 Se
atom_frac       0.23530555      0.07016731      0.02665000 Mo
atom_frac       0.36858901      0.13416418      0.04323339 Se
atom_frac       0.36858901      0.13416418      0.01006661 Se
atom_frac       0.24444817      0.27588969      0.02665000 Mo
atom_frac       0.38136679      0.34916316      0.04210665 Se
atom_frac       0.38136679      0.34916316      0.01119335 Se
atom_frac       0.24741302      0.49384864      0.02665000 Mo
atom_frac       0.22998100      0.67003026      0.02665000 Mo
atom_frac       0.36069562      0.72928323      0.04360397 Se
atom_frac       0.36069562      0.72928323      0.00969603 Se
atom_frac       0.23243763      0.86868980      0.02665000 Mo
atom_frac       0.36644597      0.93246746      0.04317348 Se
atom_frac       0.36644597      0.93246746      0.01012652 Se
atom_frac       0.43448138      0.06592210      0.02665000 Mo
atom_frac       0.56806831      0.13022080      0.04318997 Se
atom_frac       0.56806831      0.13022080      0.01011003 Se
atom_frac       0.44074298      0.26781944      0.02665000 Mo
atom_frac       0.57035980      0.32964016      0.04353706 Se
atom_frac       0.57035980      0.32964016      0.00976294 Se
atom_frac       0.55082463      0.51862379      0.04210671 Se
atom_frac       0.55082463      0.51862379      0.01119329 Se
atom_frac       0.40614398      0.65257446      0.02665000 Mo
atom_frac       0.54850304      0.71718533      0.04273467 Se
atom_frac       0.54850304      0.71718533      0.01056533 Se
atom_frac       0.43141584      0.86358366      0.02665000 Mo
atom_frac       0.56545180      0.92833984      0.04312646 Se
atom_frac       0.56545180      0.92833984      0.01017354 Se
atom_frac       0.63393253      0.06319724      0.02665000 Mo
atom_frac       0.76836534      0.13163817      0.04315281 Se
atom_frac       0.76836534      0.13163817      0.01014719 Se
atom_frac       0.63589638      0.26410479      0.02665000 Mo
atom_frac       0.76977984      0.33193469      0.04318994 Se
atom_frac       0.76977984      0.33193469      0.01011006 Se
atom_frac       0.63217703      0.45925646      0.02665000 Mo
atom_frac       0.76583105      0.53140854      0.04323356 Se
atom_frac       0.76583105      0.53140854      0.01006644 Se
atom_frac       0.62410854      0.65554334      0.02665000 Mo
atom_frac       0.75922372      0.72774660      0.04312275 Se
atom_frac       0.75922372      0.72774660      0.01017725 Se
atom_frac       0.62847217      0.85914837      0.02665000 Mo
atom_frac       0.76330330      0.92934962      0.04314363 Se
atom_frac       0.76330330      0.92934962      0.01015637 Se
atom_frac       0.83474227      0.06525641      0.02665000 Mo
atom_frac       0.97064715      0.13669409      0.04314374 Se
atom_frac       0.97064715      0.13669409      0.01015626 Se
atom_frac       0.83680595      0.26607302      0.02665000 Mo
atom_frac       0.97166267      0.33455456      0.04312640 Se
atom_frac       0.97166267      0.33455456      0.01017360 Se
atom_frac       0.83407880      0.46552288      0.02665000 Mo
atom_frac       0.96753482      0.53355955      0.04317343 Se
atom_frac       0.96753482      0.53355955      0.01012657 Se
atom_frac       0.82983140      0.66469126      0.02665000 Mo
atom_frac       0.96377811      0.73365738      0.04316001 Se
atom_frac       0.96377811      0.73365738      0.01013999 Se
atom_frac       0.82949076      0.86349561      0.02665000 Mo
atom_frac       0.96545675      0.93453975      0.04302912 Se
atom_frac       0.96545675      0.93453975      0.01027088 Se
# 
# What follows is the current estimated Hessian matrix constructed by the BFGS algorithm.
# This is NOT the true Hessian matrix of the system.
# If you do not want this information here, switch it off using the "hessian_to_restart_geometry" keyword.
# 
