# 
# This is the geometry file that corresponds to the current relaxation step.
# If you do not want this file to be written, set the "write_restart_geometry" flag to .false.
#  aims_uuid : B2DF1435-75B5-4DA5-A72E-D63ABA740F4F                                
# 
  set_vacuum_level        53.881615
lattice_vector     16.29568820      0.00000000      0.00000000
lattice_vector     -8.14028310     14.11790945      0.00000000
lattice_vector      0.00000000      0.00000000    100.31494303
atom_frac       0.03326441      0.06662474      0.02647690 W
atom_frac       0.16676753      0.13338770      0.04305553 Se
atom_frac       0.16671388      0.13336095      0.00989123 Se
atom_frac       0.03329247      0.26657086      0.02649294 W
atom_frac       0.16656382      0.33325655      0.04311598 Se
atom_frac       0.16649630      0.33344972      0.00987313 Se
atom_frac       0.03344292      0.46657085      0.02651141 W
atom_frac       0.16666121      0.53332889      0.04314404 Se
atom_frac       0.16671602      0.53343899      0.00989852 Se
atom_frac       0.03344112      0.66685432      0.02651142 W
atom_frac       0.16666105      0.73333986      0.04314384 Se
atom_frac       0.16671560      0.73328414      0.00989869 Se
atom_frac       0.03329319      0.86670525      0.02649297 W
atom_frac       0.16656393      0.93331481      0.04311608 Se
atom_frac       0.16649642      0.93305454      0.00987306 Se
atom_frac       0.23354962      0.06638394      0.02646666 W
atom_frac       0.36641531      0.13326262      0.04314897 Se
atom_frac       0.36595427      0.13230412      0.00971091 Se
atom_frac       0.23355168      0.26714809      0.02646661 W
atom_frac       0.36641670      0.33315685      0.04314929 Se
atom_frac       0.36595612      0.33365616      0.00971084 Se
atom_frac       0.23314400      0.46657061      0.02651136 W
atom_frac       0.36685374      0.53314709      0.04307640 Se
atom_frac       0.36663981      0.53336165      0.00992885 Se
atom_frac       0.23333868      0.66665921      0.02652666 W
atom_frac       0.36667334      0.73333974      0.04314390 Se
atom_frac       0.36656290      0.73328411      0.00989862 Se
atom_frac       0.23314373      0.86655579      0.02651131 W
atom_frac       0.36685239      0.93370980      0.04307656 Se
atom_frac       0.36663792      0.93328079      0.00992847 Se
atom_frac       0.43366054      0.06730627      0.02646634 W
atom_frac       0.56684103      0.13326773      0.04314900 Se
atom_frac       0.56634179      0.13230847      0.00971097 Se
atom_frac       0.42967961      0.26482934      0.02634361 W
atom_frac       0.56666089      0.33333544      0.04206805 Se
atom_frac       0.56666041      0.33333770      0.06433524 Se
atom_frac       0.56666211      0.33333514      0.01016784 Se
atom_frac       0.43366493      0.46633161      0.02646659 W
atom_frac       0.56684289      0.53358406      0.04314914 Se
atom_frac       0.56634512      0.53404526      0.00971108 Se
atom_frac       0.43342957      0.66685396      0.02651139 W
atom_frac       0.56674549      0.73343872      0.04311620 Se
atom_frac       0.56655251      0.73350578      0.00987307 Se
atom_frac       0.43342899      0.86655565      0.02651131 W
atom_frac       0.56674477      0.93331681      0.04311596 Se
atom_frac       0.56655171      0.93305572      0.00987308 Se
atom_frac       0.63285053      0.06638831      0.02646647 W
atom_frac       0.76661303      0.13338848      0.04305549 Se
atom_frac       0.76664019      0.13336224      0.00989118 Se
atom_frac       0.63516633      0.26483329      0.02634366 W
atom_frac       0.76673181      0.33315967      0.04314937 Se
atom_frac       0.76769277      0.33366043      0.00971092 Se
atom_frac       0.63516671      0.47031543      0.02634375 W
atom_frac       0.76673544      0.53358483      0.04314921 Se
atom_frac       0.76769470      0.53404652      0.00971105 Se
atom_frac       0.63285026      0.66644877      0.02646671 W
atom_frac       0.76661313      0.73323415      0.04305569 Se
atom_frac       0.76664017      0.73328769      0.00989137 Se
atom_frac       0.63342830      0.86670664      0.02649295 W
atom_frac       0.76673947      0.93337540      0.04310336 Se
atom_frac       0.76665856      0.93333420      0.00986393 Se
atom_frac       0.83337598      0.06662447      0.02647685 W
atom_frac       0.96662766      0.13326366      0.04310340 Se
atom_frac       0.96666834      0.13334467      0.00986379 Se
atom_frac       0.83360834      0.26714865      0.02646655 W
atom_frac       0.96668457      0.33325726      0.04311592 Se
atom_frac       0.96694524      0.33345079      0.00987323 Se
atom_frac       0.83268660      0.46633685      0.02646659 W
atom_frac       0.96628835      0.53314778      0.04307659 Se
atom_frac       0.96671636      0.53336198      0.00992876 Se
atom_frac       0.83361452      0.66644911      0.02646684 W
atom_frac       0.96668661      0.73343811      0.04311622 Se
atom_frac       0.96694595      0.73350452      0.00987313 Se
atom_frac       0.83337515      0.86673426      0.02647700 W
atom_frac       0.96662796      0.93337457      0.04310338 Se
atom_frac       0.96666789      0.93333354      0.00986398 Se
# 
# What follows is the current estimated Hessian matrix constructed by the BFGS algorithm.
# This is NOT the true Hessian matrix of the system.
# If you do not want this information here, switch it off using the "hessian_to_restart_geometry" keyword.
# 
