# 
# This is the geometry file that corresponds to the current relaxation step.
# If you do not want this file to be written, set the "write_restart_geometry" flag to .false.
#  aims_uuid : E939578E-BEEF-40E9-A37C-C57E1CE35BB9                                
# 
  set_vacuum_level        53.044136
lattice_vector     15.66599045      0.00000000      0.00000000
lattice_vector     -7.83292280     13.56702030      0.00000000
lattice_vector      0.00000000      0.00000000     99.99930752
atom       1.57852987      0.91458735      3.13793820 Mo
atom       0.00948082      1.81479599      4.68542330 S
atom       0.01110698      1.81571132      1.59718755 S
atom       0.01443779      3.62373285      3.13792199 Mo
atom      -1.58109234      4.52908178      4.66844082 S
atom      -1.55928137      4.51069573      1.58409156 S
atom      -1.57812259      6.32548322      3.11213675 Mo
atom      -3.19264265      7.21427596      4.63048071 S
atom      -3.15172603      7.21762103      1.55788927 S
atom      -3.15986537      9.02966912      3.09656804 Mo
atom      -4.74844872      9.90894294      4.63048726 S
atom      -4.72507028      9.94272944      1.55788959 S
atom      -4.71090481     11.75154092      3.11217041 Mo
atom      -6.26813091     12.64716624      4.66843623 S
atom      -6.27309524     12.67524674      1.58410539 S
atom       4.71122951      0.92895068      3.08770712 Mo
atom       3.17978389      1.84318947      4.65962997 S
atom       3.12909054      1.82928109      1.57906202 S
atom       3.18773116      3.64967744      3.10421620 Mo
atom       1.61930917      4.54611835      4.65959377 S
atom       1.58192802      4.50909315      1.57903262 S
atom       1.59325950      6.32950296      3.08761966 Mo
atom       0.01834708      7.23912412      4.63675600 S
atom      -0.00682429      7.21725553      1.55604602 S
atom      -0.00179808      9.03821947      3.08196494 Mo
atom      -1.57393832      9.94523488      4.62594727 S
atom      -1.58760053      9.93738686      1.54820405 S
atom      -1.57341029     11.76027628      3.08201513 Mo
atom      -3.12141063     12.67723679      4.63681037 S
atom      -3.15292058     12.66640432      1.55611314 S
atom       7.83479744      0.93267726      3.03231572 Mo
atom       6.32698271      1.91955756      4.56184693 S
atom       6.25090755      1.81932228      1.47976084 S
atom       6.34023211      3.67723430      2.95132913 Mo
atom       4.93451094      4.65818075      4.56155221 S
atom       4.70581034      4.52609809      1.46032027 S
atom       4.78786959      6.36604461      2.95127620 Mo
atom       3.25905583      7.23344752      4.56176176 S
atom       3.13423434      7.21765188      1.47967397 S
atom       3.15830334      9.03268940      3.03223357 Mo
atom       1.59261577      9.93619108      4.59932263 S
atom       1.55516294      9.94850143      1.52229153 S
atom       1.56926118     11.75996616      3.07081636 Mo
atom       0.00149806     12.69201042      4.59938072 S
atom      -0.00659585     12.65347267      1.52234355 S
atom      10.96350036      0.91451582      3.09173979 Mo
atom       9.34524905      1.87090951      4.58839103 S
atom       9.42864265      1.82493328      1.49748995 S
atom       9.34433224      3.63857472      3.00532261 Mo
atom       7.86616446      4.53718557      1.39970422 S
atom       7.75898209      6.28895792      2.93051396 Mo
atom       6.29555903      7.25759780      1.39963658 S
atom       6.25645079      8.98705909      3.00525280 Mo
atom       4.72606520      9.87163444      4.58830912 S
atom       4.72795018      9.96687793      1.49741898 S
atom       4.70690825     11.75131035      3.09170121 Mo
atom       3.12413213     12.65763234      4.63048226 S
atom       3.14731865     12.67104677      1.54381105 S
atom      14.10384606      0.90743580      3.13296331 Mo
atom      12.51314144      1.80967400      4.66305236 S
atom      12.55150530      1.81210122      1.57474547 S
atom      12.51730001      3.61511298      3.11486810 Mo
atom      10.85722701      4.51842629      4.60969962 S
atom      10.96470296      4.49713087      1.52183980 S
atom      10.90258294      6.30086915      3.06514903 Mo
atom       9.20864831      7.12587700      4.56456008 S
atom       9.35154198      7.20837101      1.47465207 S
atom       9.34111996      9.00537820      3.06512749 Mo
atom       7.77482209      9.85730513      4.60966262 S
atom       7.81015453      9.96104206      1.52177843 S
atom       7.82254179     11.74661890      3.11484130 Mo
atom       6.25693367     12.64574782      4.66303061 S
atom       6.27823453     12.67776221      1.57471585 S
# 
# What follows is the current estimated Hessian matrix constructed by the BFGS algorithm.
# This is NOT the true Hessian matrix of the system.
# If you do not want this information here, switch it off using the "hessian_to_restart_geometry" keyword.
# 
trust_radius             0.0019758271
hessian_file
