# 
# This is the geometry file that corresponds to the current relaxation step.
# If you do not want this file to be written, set the "write_restart_geometry" flag to .false.
#  aims_uuid : A1BD2A58-8B88-440C-AC3F-A953376D3169                                
# 
  set_vacuum_level        52.610422
lattice_vector     16.23865900      0.00000000      0.00000000
lattice_vector     -8.11989635     14.06215255      0.00000000
lattice_vector      0.00000000      0.00000000     99.93951163
atom_frac       0.03233351      0.06665759      0.02642232 Mo
atom_frac       0.16445789      0.13146381      0.04307368 Se
atom_frac       0.16450303      0.13151757      0.00977654 Se
atom_frac       0.03391562      0.26991344      0.02642384 Mo
atom_frac       0.17290025      0.34092422      0.04253987 Se
atom_frac       0.17292901      0.34091944      0.01031364 Se
atom_frac       0.03520627      0.46779201      0.02642215 Mo
atom_frac       0.16923390      0.53517691      0.04348843 Se
atom_frac       0.16924263      0.53516469      0.00935752 Se
atom_frac       0.03368471      0.66708143      0.02642104 Mo
atom_frac       0.16647706      0.73351921      0.04298753 Se
atom_frac       0.16648194      0.73352397      0.00985564 Se
atom_frac       0.03298129      0.86701676      0.02642158 Mo
atom_frac       0.16568711      0.93246924      0.04301012 Se
atom_frac       0.16569648      0.93248555      0.00983519 Se
atom_frac       0.23186513      0.06495875      0.02642433 Mo
atom_frac       0.36418771      0.12927961      0.04311636 Se
atom_frac       0.36418284      0.12926785      0.00973177 Se
atom_frac       0.23013000      0.26288226      0.02643095 Mo
atom_frac       0.36217102      0.32666717      0.04295322 Se
atom_frac       0.36227069      0.32677880      0.00991526 Se
atom_frac       0.23982630      0.48307351      0.02642440 Mo
atom_frac       0.39637563      0.50362688      0.02642159 Se
atom_frac       0.23358713      0.66642231      0.02642160 Mo
atom_frac       0.36484422      0.73076913      0.04348570 Se
atom_frac       0.36483196      0.73077759      0.00935475 Se
atom_frac       0.23292124      0.86631665      0.02642212 Mo
atom_frac       0.36626071      0.93219855      0.04298108 Se
atom_frac       0.36625979      0.93220818      0.00986324 Se
atom_frac       0.43257637      0.06530338      0.02642317 Mo
atom_frac       0.56597732      0.13460840      0.04298234 Se
atom_frac       0.56596828      0.13460506      0.00986208 Se
atom_frac       0.42569139      0.26020022      0.02642235 Mo
atom_frac       0.56349316      0.33651000      0.04260799 Se
atom_frac       0.56348496      0.33650190      0.01023510 Se
atom_frac       0.57321065      0.53771961      0.04292773 Se
atom_frac       0.57332227      0.53781951      0.00989007 Se
atom_frac       0.41692775      0.66017910      0.02641881 Mo
atom_frac       0.55907677      0.72706936      0.04252945 Se
atom_frac       0.55907179      0.72709804      0.01030342 Se
atom_frac       0.43221556      0.86480152      0.02642102 Mo
atom_frac       0.56562971      0.93335488      0.04297813 Se
atom_frac       0.56562656      0.93336661      0.00986328 Se
atom_frac       0.63204419      0.06713046      0.02642159 Mo
atom_frac       0.76600161      0.13400074      0.04292241 Se
atom_frac       0.76600280      0.13400182      0.00992072 Se
atom_frac       0.63202736      0.26797366      0.02642155 Mo
atom_frac       0.76539622      0.33403241      0.04298082 Se
atom_frac       0.76539311      0.33402341      0.00986097 Se
atom_frac       0.63980058      0.47430798      0.02642076 Mo
atom_frac       0.77072912      0.53581633      0.04311187 Se
atom_frac       0.77071753      0.53581162      0.00972624 Se
atom_frac       0.63711349      0.66986373      0.02641222 Mo
atom_frac       0.76847688      0.73549159      0.04306664 Se
atom_frac       0.76853052      0.73553682      0.00976944 Se
atom_frac       0.63008384      0.86608613      0.02641933 Mo
atom_frac       0.76440383      0.93285346      0.04292037 Se
atom_frac       0.76441659      0.93286532      0.00992106 Se
atom_frac       0.83275919      0.06724468      0.02642158 Mo
atom_frac       0.96713531      0.13558126      0.04292241 Se
atom_frac       0.96714722      0.13559409      0.00992249 Se
atom_frac       0.83287562      0.26795972      0.02642154 Mo
atom_frac       0.96663958      0.33437733      0.04297973 Se
atom_frac       0.96665162      0.33437431      0.00986518 Se
atom_frac       0.83469443      0.46742715      0.02641995 Mo
atom_frac       0.96779197      0.53374171      0.04297971 Se
atom_frac       0.96780193      0.53374089      0.00986227 Se
atom_frac       0.83503771      0.66813174      0.02641881 Mo
atom_frac       0.96751102      0.73430098      0.04300795 Se
atom_frac       0.96752742      0.73431039      0.00983303 Se
atom_frac       0.83333961      0.86766302      0.02642084 Mo
atom_frac       0.96608501      0.93389504      0.04300721 Se
atom_frac       0.96610026      0.93391033      0.00983595 Se
# 
# What follows is the current estimated Hessian matrix constructed by the BFGS algorithm.
# This is NOT the true Hessian matrix of the system.
# If you do not want this information here, switch it off using the "hessian_to_restart_geometry" keyword.
# 
