# 
# This is the geometry file that corresponds to the current relaxation step.
# If you do not want this file to be written, set the "write_restart_geometry" flag to .false.
#  aims_uuid : 9D501A31-2D2C-4616-A6F1-3A779E777CBE                                
# 
lattice_vector      3.08234366     -0.00000000     -0.00000000
lattice_vector      0.00000000      3.08234366     -0.00000000
lattice_vector     -0.00000000      0.00000000      3.08234366
atom       0.00000000      0.00000000      0.00000000 Mo
atom       1.54117183      1.54117183      1.54117183 Mo
# 
# What follows is the current estimated Hessian matrix constructed by the BFGS algorithm.
# This is NOT the true Hessian matrix of the system.
# If you do not want this information here, switch it off using the "hessian_to_restart_geometry" keyword.
# 
trust_radius             0.2000000030
hessian_file
