#
lattice_vector  16.23865900 -0.00000000 -0.00000000
lattice_vector  -8.11989635 14.06215255 -0.00000000
lattice_vector  0.00000000 0.00000000 99.93951163
#
atom -0.00043914 0.93770694 2.66338099 Mo
atom 1.62401101 1.87483255 4.34143535 Se
atom 1.62405883 1.87483129 0.98532563 Se
atom -1.62451933 3.75018878 2.66339498 Mo
atom 0.00009271 4.68725870 4.34142735 Se
atom 0.00010855 4.68726334 0.98535262 Se
atom -3.24862696 6.56248668 2.66341897 Mo
atom -1.62387559 7.49968963 4.34141936 Se
atom -1.62390937 7.49969301 0.98534562 Se
atom -4.87259292 9.37507384 2.66341997 Mo
atom -3.24791097 10.31210538 4.34140237 Se
atom -3.24794247 10.31210369 0.98533563 Se
atom -6.49637278 12.18745289 2.66339698 Mo
atom -4.87191297 13.12456148 4.34142235 Se
atom -4.87190006 13.12455656 0.98531164 Se
atom 3.24724533 0.93770596 2.66341397 Mo
atom 4.87170741 1.87480415 4.34141936 Se
atom 4.87166381 1.87479951 0.98533563 Se
atom 1.62335050 3.75009990 2.66340098 Mo
atom 3.24774770 4.68728176 4.34140337 Se
atom 3.24774616 4.68727740 0.98533862 Se
atom -0.00084613 6.56266302 2.66339598 Mo
atom 1.62381780 7.49968809 4.34142036 Se
atom 1.62385694 7.49968921 0.98533363 Se
atom -1.62469159 9.37507103 2.66340597 Mo
atom -0.00012607 10.31212394 4.34142136 Se
atom -0.00011324 10.31212732 0.98535162 Se
atom -3.24874937 12.18741365 2.66341597 Mo
atom -1.62416997 13.12454067 4.34140736 Se
atom -1.62420285 13.12454025 0.98536661 Se
atom 6.49499612 0.93780017 2.66339198 Mo
atom 8.11952024 1.87483649 4.34140437 Se
atom 8.11955036 1.87483691 0.98537960 Se
atom 4.87104260 3.74997827 2.66339898 Mo
atom 6.49548568 4.68726461 4.34141636 Se
atom 6.49545961 4.68726475 0.98537860 Se
atom 3.24696248 6.56251368 2.66341097 Mo
atom 4.87151404 7.49965406 4.34140137 Se
atom 4.87145875 7.49965223 0.98536661 Se
atom 1.62283252 9.37496416 2.66340597 Mo
atom 3.24753818 10.31212619 4.34139137 Se
atom 3.24753314 10.31212282 0.98534862 Se
atom -0.00107977 12.18755681 2.66339698 Mo
atom 1.62361404 13.12453969 4.34140636 Se
atom 1.62366016 13.12453856 0.98534462 Se
atom 9.74269910 0.93779778 2.66340997 Mo
atom 11.36726860 1.87484071 4.34142036 Se
atom 11.36726852 1.87483607 0.98531064 Se
atom 8.11872128 3.75038073 2.66338499 Mo
atom 9.74325410 4.68724366 4.34143035 Se
atom 9.74330460 4.68724112 0.98532563 Se
atom 6.49507491 6.56272236 2.66337399 Mo
atom 8.11925786 7.49969371 4.34146233 Se
atom 8.11929350 7.49969413 0.98533962 Se
atom 4.87094909 9.37501070 2.66339398 Mo
atom 6.49532292 10.31210875 4.34145234 Se
atom 6.49528857 10.31211143 0.98535262 Se
atom 3.24680906 12.18750028 2.66341497 Mo
atom 4.87134957 13.12455712 4.34142735 Se
atom 4.87129136 13.12455614 0.98533363 Se
atom 12.99013772 0.93765449 2.66340497 Mo
atom 14.61500901 1.87482186 4.34139837 Se
atom 14.61497377 1.87482608 0.98538560 Se
atom 11.36614326 3.75018161 2.66342096 Mo
atom 12.99103900 4.68722678 4.34139937 Se
atom 12.99100035 4.68722706 0.98534162 Se
atom 9.74227019 6.56256909 2.66340298 Mo
atom 11.36700882 7.49971706 4.34137738 Se
atom 11.36702270 7.49971354 0.98535262 Se
atom 8.11846053 9.37500508 2.66337399 Mo
atom 9.74300072 10.31211621 4.34141536 Se
atom 9.74305658 10.31211424 0.98535062 Se
atom 6.49445382 12.18732928 2.66337499 Mo
atom 8.11904857 13.12455065 4.34141436 Se
atom 8.11907902 13.12455361 0.98538659 Se
