# 
# This is the geometry file that corresponds to the current relaxation step.
# If you do not want this file to be written, set the "write_restart_geometry" flag to .false.
#  aims_uuid : 4187FF3E-71ED-46C7-A04C-006B793BEDB2                                
# 
  set_vacuum_level       103.288256
lattice_vector     16.31232095      0.00000000      0.00000000
lattice_vector     -8.15665875     14.12581815      0.00000000
lattice_vector      0.00000000      0.00000000    103.32585319
atom       0.00410505      0.95254129     51.67679602 Mo
atom       1.65262407      1.94034529     53.30184045 Se
atom       1.62397683      1.88014673     49.99038128 Se
atom      -1.61651369      3.79222553     51.67002672 Mo
atom       0.09177573      4.81568406     53.27394699 Se
atom      -0.01389177      4.72587795     49.95274710 Se
atom      -3.24990327      6.58475704     51.64783291 Mo
atom      -1.52272760      7.52964999     53.25904895 Se
atom      -1.61877620      7.50466454     49.94917806 Se
atom      -4.89631969      9.40710044     51.64941892 Mo
atom      -3.23186962     10.33985499     53.28756941 Se
atom      -3.26813735     10.36079569     49.98197457 Se
atom      -6.52641014     12.24179789     51.66990889 Mo
atom      -4.87740346     13.20870377     53.31354383 Se
atom      -4.89964791     13.19295134     50.00297537 Se
atom       3.27475750      0.97595582     51.64722150 Mo
atom       4.93906004      2.01031788     53.26877006 Se
atom       4.88529727      1.91192901     49.94865132 Se
atom       1.65160640      3.80651755     51.59960633 Mo
atom       3.31594155      4.79901856     53.21213137 Se
atom       3.28803209      4.70200065     49.89236438 Se
atom       0.09618077      6.63754921     51.55005644 Mo
atom       1.63523711      7.53009906     49.81929665 Se
atom      -1.60047235      9.39813110     51.60473378 Mo
atom       0.05661556     10.26501505     53.25905762 Se
atom       0.03018551     10.36071402     49.94913554 Se
atom      -3.25628466     12.24762631     51.64945921 Mo
atom      -1.62327513     13.20714761     53.29518520 Se
atom      -1.62421785     13.18824605     49.98853594 Se
atom       6.52372566      0.98375830     51.62136873 Mo
atom       8.09724263      1.97585990     53.28618440 Se
atom       8.17775992      1.90248462     49.96773115 Se
atom       4.97075867      3.83403532     51.54254355 Mo
atom       6.53758701      4.69997438     49.83648509 Se
atom       3.21995414      6.61521516     51.49893629 Mo
atom       4.84092845      7.44027294     53.21209738 Se
atom       4.91086933      7.51298764     49.89233161 Se
atom       1.63865096      9.30927190     51.55002724 Mo
atom       3.21429355     10.22397052     53.27391398 Se
atom       3.23918888     10.36038305     49.95270337 Se
atom       0.01134204     12.23318773     51.64788424 Mo
atom       1.61581419     13.17759806     53.33080871 Se
atom       1.64005630     13.19224288     50.01109377 Se
atom       9.77992262      0.95511630     51.67332988 Mo
atom      11.40424208      1.89055968     53.35006986 Se
atom      11.42489594      1.87857771     50.02637692 Se
atom       8.07431112      3.81286551     51.56984884 Mo
atom       9.67673438      4.71159130     53.28615632 Se
atom       9.78045686      4.67847973     49.96770319 Se
atom       6.50407084      6.48989985     51.54248224 Mo
atom       8.06763970      7.42924713     53.26870287 Se
atom       8.12591788      7.52496421     49.94854449 Se
atom       4.86827814      9.37786313     51.59959710 Mo
atom       6.48496885     10.31012156     53.30183291 Se
atom       6.52271013     10.36501865     49.99034151 Se
atom       3.24646462     12.21508118     51.67004324 Mo
atom       4.87725346     13.15476653     53.34380717 Se
atom       4.88550167     13.18554193     50.02859384 Se
atom      13.04777471      0.94172258     51.69639165 Mo
atom      14.69742178      1.91016188     53.34380122 Se
atom      14.67488589      1.88756730     50.02860211 Se
atom      11.40214775      3.76488554     51.67328618 Mo
atom      13.04683013      4.72312054     53.33074812 Se
atom      13.04623755      4.69470670     50.01107430 Se
atom       9.74907002      6.57029847     51.62132528 Mo
atom      11.40150337      7.51318318     53.29512423 Se
atom      11.41739425      7.52343466     49.98850742 Se
atom       8.13124780      9.38764611     51.64716554 Mo
atom       9.77301312     10.33032863     53.31350970 Se
atom       9.77552932     10.35746282     50.00293759 Se
atom       6.51612616     12.23162100     51.67677627 Mo
atom       8.15688291     13.18221229     53.33528675 Se
atom       8.14838597     13.18709907     50.01940922 Se
# 
# What follows is the current estimated Hessian matrix constructed by the BFGS algorithm.
# This is NOT the true Hessian matrix of the system.
# If you do not want this information here, switch it off using the "hessian_to_restart_geometry" keyword.
# 
trust_radius             0.0004504331
hessian_file
