#
#

lattice_vector      16.238659     -0.000     -0.00
lattice_vector      -8.11989635    14.06215255     -0.00
lattice_vector      0.0000      0.0000     99.93951163

atom_frac 0.03547192 0.06865402 0.02686141 Mo
atom_frac 0.17560221 0.14319819 0.04268680 Se
atom_frac 0.16621525 0.13415165 0.00952881 Se
atom_frac 0.03972649 0.26986108 0.02701575 Mo
atom_frac 0.19010903 0.34505298 0.04265448 Se
atom_frac 0.16784628 0.33392112 0.00923890 Se
atom_frac 0.03547725 0.46681893 0.02686144 Mo
atom_frac 0.17561011 0.53240472 0.04268688 Se
atom_frac 0.16622021 0.53206153 0.00952879 Se
atom_frac 0.03288397 0.66609497 0.02685548 Mo
atom_frac 0.16813958 0.73203489 0.04316722 Se
atom_frac 0.16579371 0.73311241 0.01005611 Se
atom_frac 0.03288068 0.86678356 0.02685538 Mo
atom_frac 0.16813569 0.93610035 0.04316738 Se
atom_frac 0.16579082 0.93267555 0.01005616 Se
atom_frac 0.23478521 0.06938970 0.02625754 Mo
atom_frac 0.36594507 0.13891208 0.04298991 Se
atom_frac 0.36873020 0.13409737 0.00968902 Se
atom_frac 0.24262638 0.27255045 0.02522667 Mo
atom_frac 0.36936158 0.33402522 0.00815520 Se
atom_frac 0.24263104 0.47007380 0.02522664 Mo
atom_frac 0.36936394 0.53534310 0.00815487 Se
atom_frac 0.23478959 0.66539397 0.02625747 Mo
atom_frac 0.36595291 0.72703678 0.04298959 Se
atom_frac 0.36873240 0.73463495 0.00968850 Se
atom_frac 0.23358403 0.86679031 0.02672360 Mo
atom_frac 0.36608104 0.93304065 0.04347691 Se
atom_frac 0.36756197 0.93378116 0.01021340 Se
atom_frac 0.43334259 0.06742266 0.02686694 Mo
atom_frac 0.56536399 0.13345063 0.04378143 Se
atom_frac 0.56789435 0.13357114 0.01050424 Se
atom_frac 0.42925230 0.26877392 0.02580291 Mo
atom_frac 0.55823763 0.33252462 0.04316769 Se
atom_frac 0.56560835 0.33156104 0.00993878 Se
atom_frac 0.42458618 0.46229693 0.02482906 Mo
atom_frac 0.54665273 0.52332911 0.04260552 Se
atom_frac 0.56256809 0.53128688 0.00940753 Se
atom_frac 0.42926169 0.66048801 0.02580217 Mo
atom_frac 0.55824307 0.72572047 0.04316741 Se
atom_frac 0.56561303 0.73405400 0.00993783 Se
atom_frac 0.43334563 0.86592260 0.02686683 Mo
atom_frac 0.56536727 0.93191856 0.04378135 Se
atom_frac 0.56789566 0.93432646 0.01050408 Se
atom_frac 0.63373976 0.06687193 0.02730213 Mo
atom_frac 0.76755613 0.13377869 0.04404558 Se
atom_frac 0.76790758 0.13395474 0.01077932 Se
atom_frac 0.63212295 0.26661680 0.02710508 Mo
atom_frac 0.76574653 0.33361563 0.04387664 Se
atom_frac 0.76694076 0.33262308 0.01065209 Se
atom_frac 0.62694943 0.46418029 0.02657062 Mo
atom_frac 0.76080798 0.53110016 0.04347403 Se
atom_frac 0.76444832 0.53185181 0.01041873 Se
atom_frac 0.62694980 0.66277313 0.02657035 Mo
atom_frac 0.76080865 0.72970869 0.04347389 Se
atom_frac 0.76444718 0.73259561 0.01041876 Se
atom_frac 0.63212344 0.86551048 0.02710459 Mo
atom_frac 0.76574663 0.93213232 0.04387621 Se
atom_frac 0.76694098 0.93431768 0.01065184 Se
atom_frac 0.83479891 0.06755980 0.02739240 Mo
atom_frac 0.97168916 0.13652423 0.04376069 Se
atom_frac 0.96770405 0.13518878 0.01060510 Se
atom_frac 0.83480134 0.26724076 0.02739253 Mo
atom_frac 0.97169114 0.33516338 0.04376063 Se
atom_frac 0.96770564 0.33251404 0.01060522 Se
atom_frac 0.83222161 0.46620884 0.02715463 Mo
atom_frac 0.96799395 0.53331663 0.04357545 Se
atom_frac 0.96549900 0.53200819 0.01039364 Se
atom_frac 0.83063114 0.66531639 0.02701111 Mo
atom_frac 0.96573950 0.73286761 0.04348384 Se
atom_frac 0.96463117 0.73231325 0.01033757 Se
atom_frac 0.83222078 0.86601140 0.02715440 Mo
atom_frac 0.96799178 0.93467376 0.04357528 Se
atom_frac 0.96549697 0.93348603 0.01039360 Se
