# 
# This is the geometry file that corresponds to the current relaxation step.
# If you do not want this file to be written, set the "write_restart_geometry" flag to .false.
#  aims_uuid : 104F0878-4ED4-4282-A513-7F10BA75DF59                                
# 
lattice_vector     16.60000000      0.00000000      0.00000000
lattice_vector     -8.30000000     14.37602170      0.00000000
lattice_vector      0.00000000      0.00000000    100.00000000
atom       0.01998721      0.98882185      2.68887501 Mo
atom       1.72912806      2.06825702      4.26985092 Se
atom       1.64445169      1.92601245      0.94435273 Se
atom      -1.57613977      3.88197870      2.70275613 Mo
atom       0.30585905      4.96857602      4.26422364 Se
atom       0.01279280      4.79935718      0.90991354 Se
atom      -3.28360175      6.71088754      2.68882531 Mo
atom      -1.49420326      7.65136881      4.26981536 Se
atom      -1.65971666      7.64913596      0.94432084 Se
atom      -4.98284775      9.57526621      2.69071981 Mo
atom      -3.28131514     10.52231553      4.32399140 Se
atom      -3.33451550     10.53898418      1.00354332 Se
atom      -6.64901230     12.46110014      2.69074248 Mo
atom      -4.97807025     13.46112069      4.32402748 Se
atom      -4.99024179     13.40670603      1.00355647 Se
atom       3.32135343      1.00051198      2.62473145 Mo
atom       4.91919798      2.00319060      4.30112015 Se
atom       5.00918193      1.92443230      0.95996441 Se
atom       1.76848040      3.92304125      2.51004562 Mo
atom       3.36095909      4.79871201      0.79082986 Se
atom       0.13175946      6.75799868      2.51002012 Mo
atom       1.68629641      7.69940795      0.79082210 Se
atom      -1.62276731      9.56411988      2.62470365 Mo
atom       0.04448595     10.44661502      4.30109529 Se
atom       0.02124887     10.56390917      0.95993092 Se
atom      -3.31679645     12.46105036      2.67542283 Mo
atom      -1.66716458     13.41348769      4.35518398 Se
atom      -1.64925333     13.42382723      1.01864595 Se
atom       6.63314405      0.97003023      2.68830076 Mo
atom       8.27449544      1.91939613      4.38734633 Se
atom       8.32018935      1.92027356      1.04953975 Se
atom       4.89295823      3.86514777      2.56915102 Mo
atom       6.49774758      4.78057952      4.31946941 Se
atom       6.64073760      4.76666586      0.98523952 Se
atom       3.20990209      6.64526754      2.45971825 Mo
atom       4.71656538      7.51514931      4.25807008 Se
atom       4.93311688      7.64019351      0.92465828 Se
atom       1.64385127      9.49293737      2.56911833 Mo
atom       3.23897520     10.42501392      4.31946845 Se
atom       3.29844950     10.55581089      0.98520567 Se
atom       0.00667402     12.44749659      2.68829350 Mo
atom       1.64948089     13.39429865      4.38735189 Se
atom       1.67310731     13.43339792      1.04954107 Se
atom       9.96514029      0.96139850      2.73661146 Mo
atom      11.63147316      1.92344625      4.41728333 Se
atom      11.63622228      1.92616093      1.08023172 Se
atom       8.27872269      3.83340381      2.71379868 Mo
atom       9.94032807      4.79612130      4.39868418 Se
atom       9.97183152      4.78186588      1.06608847 Se
atom       6.54892368      6.67126935      2.65494552 Mo
atom       8.21488659      7.63233081      4.35513201 Se
atom       8.27631978      7.64609642      1.04097216 Se
atom       4.90192234      9.52396889      2.65495678 Mo
atom       6.56723970     10.48615348      4.35515143 Se
atom       6.60986119     10.53248867      1.04099905 Se
atom       3.30917657     12.44093708      2.71380110 Mo
atom       4.97370750     13.39854772      4.39870410 Se
atom       4.97714674     13.43293350      1.06611511 Se
atom      13.29754068      0.97183500      2.74643579 Mo
atom      15.00098159      1.96641483      4.38515419 Se
atom      14.94102792      1.94326572      1.06001374 Se
atom      11.64042503      3.84208566      2.74641679 Mo
atom      13.35349311      4.82000486      4.38512109 Se
atom      13.30347947      4.77961915      1.05999291 Se
atom       9.94468315      6.70166938      2.72132251 Mo
atom      11.64401171      7.66635999      4.36744123 Se
atom      11.61049559      7.64797490      1.03935537 Se
atom       8.26461840      9.56359437      2.70635530 Mo
atom       9.94765098     10.53525519      4.35886034 Se
atom       9.93379100     10.52727479      1.03431434 Se
atom       6.62613630     12.44951016      2.72135550 Mo
atom       8.31125866     13.43880638      4.36748266 Se
atom       8.27857308     13.41896897      1.03940005 Se
# 
# What follows is the current estimated Hessian matrix constructed by the BFGS algorithm.
# This is NOT the true Hessian matrix of the system.
# If you do not want this information here, switch it off using the "hessian_to_restart_geometry" keyword.
# 
trust_radius             0.0007277296
hessian_file
