lattice_vector      3.08234366     -0.00000000     -0.00000000
lattice_vector      0.00000000      3.08234366     -0.00000000
lattice_vector     -0.00000000      0.00000000      3.08234366
atom       0.00000000      0.00000000      0.00000000 Mo
atom       1.54117183      1.54117183      1.54117183 Mo
