#
# temporary structure-file for finite-difference calculation of forces
# displacement  -0.0020 of \# atom     1 direction     2
#
lattice_vector    3.08234366   -0.00000000   -0.00000000
lattice_vector    0.00000000    3.08234366   -0.00000000
lattice_vector   -0.00000000    0.00000000    3.08234366
atom    0.00000000    0.00000000    0.00000000  Mo
atom    1.54117183    1.54117183    1.53917183  Mo
