# 
# This is the geometry file that corresponds to the current relaxation step.
# If you do not want this file to be written, set the "write_restart_geometry" flag to .false.
#  aims_uuid : 7B0FC8A2-8178-4B0E-A884-680043491A7B                                
# 
  set_vacuum_level        52.614429
lattice_vector     16.41708800      0.00000000      0.00000000
lattice_vector     -8.21125790     14.21583190      0.00000000
lattice_vector      0.00000000      0.00000000     99.89650741
atom       0.06585233      1.02834106      2.65771719 Mo
atom       1.68581613      1.99232489      4.35714116 Se
atom       1.69406493      2.00842500      0.96072586 Se
atom      -1.65333973      3.81277240      2.66642531 Mo
atom      -0.05264193      4.73517949      4.37912182 Se
atom      -0.05417387      4.73784254      0.95386431 Se
atom      -3.20580429      6.69263033      2.67493848 Mo
atom      -1.54370775      7.61310711      4.37224606 Se
atom      -1.56167828      7.61394056      0.97545730 Se
atom      -4.81422275      9.55733521      2.66978655 Mo
atom      -3.16174493     10.49736023      4.33950585 Se
atom      -3.16072081     10.49368827      0.99954566 Se
atom      -6.46762254     12.41986646      2.66246248 Mo
atom      -4.82999041     13.38367183      4.33307567 Se
atom      -4.82722665     13.38114591      0.99307943 Se
atom       3.32977823      1.08160197      2.66040413 Mo
atom       4.94381876      2.09360941      4.31515413 Se
atom       4.95145934      2.08778563      1.00955168 Se
atom       1.56836151      3.87447078      2.67049746 Mo
atom       3.14736824      5.10270745      4.23068819 Se
atom       3.21347859      5.04289042      1.01236842 Se
atom       0.00992226      6.57188977      2.66220265 Mo
atom       1.84401618      7.41184542      4.31974430 Se
atom       1.86258744      7.32460491      1.10188972 Se
atom      -1.52874224      9.49270662      2.67238014 Mo
atom       0.15354891     10.39385458      4.32277166 Se
atom       0.15407067     10.38438348      1.01687701 Se
atom      -3.18864700     12.40477389      2.66617993 Mo
atom      -1.55198534     13.34962214      4.33289294 Se
atom      -1.55186603     13.34907345      0.99946530 Se
atom       6.61070964      1.06014015      2.66677941 Mo
atom       8.25206705      1.97798742      4.34318570 Se
atom       8.25178978      1.98137100      0.99307936 Se
atom       4.90360951      4.03924580      2.65770444 Mo
atom       6.59221640      4.87218050      4.34413161 Se
atom       6.60496301      4.87050374      0.98978227 Se
atom       5.10156192      7.71121380      4.33557730 Se
atom       5.10210622      7.71216189      0.99483703 Se
atom       1.81959399      9.37692605      2.67424339 Mo
atom       3.39101950     10.43386177      4.34167618 Se
atom       3.38541447     10.42232069      0.98736238 Se
atom       0.09277630     12.34437777      2.66536745 Mo
atom       1.71150638     13.30426605      4.33907508 Se
atom       1.70841187     13.30632941      0.98889043 Se
atom       9.89314270      1.00024351      2.66607161 Mo
atom      11.52913891      1.94140788      4.34518756 Se
atom      11.52636542      1.94667110      0.98724305 Se
atom       8.23735142      3.88484641      2.67032249 Mo
atom       9.88991407      4.81470598      4.35014007 Se
atom       9.89095547      4.81541531      0.99156024 Se
atom       6.69744436      6.77207895      2.66691892 Mo
atom       8.34800739      7.68936513      4.35590563 Se
atom       8.35107860      7.68652349      0.98094772 Se
atom       5.08391040      9.56371581      2.66385450 Mo
atom       6.70312818     10.53811834      4.35026163 Se
atom       6.70453855     10.53466579      0.97585135 Se
atom       3.35289287     12.34043376      2.66158654 Mo
atom       4.98549098     13.30660116      4.34072580 Se
atom       4.98443902     13.30678380      0.98189241 Se
atom      13.16617095      0.98179001      2.66244131 Mo
atom      14.80432215      1.91915675      4.34113012 Se
atom      14.79985550      1.92494466      0.98225709 Se
atom      11.51314801      3.84346814      2.66982829 Mo
atom      13.14648136      4.78720732      4.35086189 Se
atom      13.14399334      4.79389676      0.99175242 Se
atom       9.95614677      6.71681185      2.67142967 Mo
atom      11.59278266      7.66333082      4.35390697 Se
atom      11.59452679      7.66059937      0.99103741 Se
atom       8.33649948      9.57977570      2.66581371 Mo
atom       9.97129192     10.52763230      4.34519293 Se
atom       9.97492055     10.52215924      0.98698252 Se
atom       6.66591316     12.41355521      2.66048955 Mo
atom       8.30178347     13.36022470      4.34160954 Se
atom       8.30361055     13.35793347      0.97834428 Se
# 
# What follows is the current estimated Hessian matrix constructed by the BFGS algorithm.
# This is NOT the true Hessian matrix of the system.
# If you do not want this information here, switch it off using the "hessian_to_restart_geometry" keyword.
# 
trust_radius             0.0093824328
hessian_file
