# 
# This is the geometry file that corresponds to the current relaxation step.
# If you do not want this file to be written, set the "write_restart_geometry" flag to .false.
#  aims_uuid : D46AD605-7057-438B-A085-DA6E224EA143                                
# 
  set_vacuum_level        52.614429
lattice_vector     16.41708800      0.00000000      0.00000000
lattice_vector     -8.21125790     14.21583190      0.00000000
lattice_vector      0.00000000      0.00000000     99.89650741
atom       0.06595353      1.02865521      2.65758478 Mo
atom       1.68591251      1.99215905      4.35701452 Se
atom       1.69400152      2.00826321      0.96042864 Se
atom      -1.65341673      3.81254796      2.66621703 Mo
atom      -0.05269251      4.73506541      4.37890493 Se
atom      -0.05424934      4.73771272      0.95357169 Se
atom      -3.20586422      6.69281732      2.67479472 Mo
atom      -1.54372968      7.61295083      4.37211916 Se
atom      -1.56162983      7.61395516      0.97527981 Se
atom      -4.81428584      9.55734657      2.66974152 Mo
atom      -3.16174580     10.49733223      4.33947887 Se
atom      -3.16065068     10.49358171      0.99932904 Se
atom      -6.46765318     12.41989623      2.66252740 Mo
atom      -4.82995550     13.38375992      4.33297749 Se
atom      -4.82721296     13.38102726      0.99289166 Se
atom       3.32996853      1.08153689      2.66012718 Mo
atom       4.94375410      2.09332259      4.31512916 Se
atom       4.95152441      2.08771336      1.00951869 Se
atom       1.56818035      3.87441470      2.67023914 Mo
atom       3.14740365      5.10252770      4.23053399 Se
atom       3.21354999      5.04254499      1.01226634 Se
atom       0.01001905      6.57181582      2.66218898 Mo
atom       1.84411719      7.41209847      4.32011142 Se
atom       1.86309616      7.32482623      1.10193251 Se
atom      -1.52876651      9.49274594      2.67225680 Mo
atom       0.15349020     10.39389358      4.32283937 Se
atom       0.15431681     10.38426383      1.01709820 Se
atom      -3.18849025     12.40455852      2.66615202 Mo
atom      -1.55210795     13.34961125      4.33285481 Se
atom      -1.55180368     13.34898841      0.99942353 Se
atom       6.61088192      1.06000286      2.66679694 Mo
atom       8.25197433      1.97807916      4.34321868 Se
atom       8.25175705      1.98148041      0.99304300 Se
atom       4.90359949      4.03904758      2.65768338 Mo
atom       6.59221547      4.87201254      4.34414071 Se
atom       6.60486242      4.87059043      0.99002422 Se
atom       5.10149041      7.71142031      4.33588346 Se
atom       5.10170425      7.71219132      0.99521674 Se
atom       1.81959687      9.37696319      2.67456286 Mo
atom       3.39101827     10.43386220      4.34194231 Se
atom       3.38555798     10.42231343      0.98780374 Se
atom       0.09269970     12.34438820      2.66544070 Mo
atom       1.71141876     13.30439295      4.33911646 Se
atom       1.70844864     13.30633300      0.98895619 Se
atom       9.89287267      1.00028976      2.66611714 Mo
atom      11.52907637      1.94149546      4.34517659 Se
atom      11.52623307      1.94654286      0.98710216 Se
atom       8.23736242      3.88494239      2.67030371 Mo
atom       9.88982573      4.81459609      4.35013023 Se
atom       9.89070028      4.81541041      0.99151569 Se
atom       6.69743826      6.77210678      2.66726764 Mo
atom       8.34809747      7.68940998      4.35603236 Se
atom       8.35098680      7.68666962      0.98112401 Se
atom       5.08429713      9.56364603      2.66430083 Mo
atom       6.70326697     10.53829974      4.35057318 Se
atom       6.70448332     10.53478688      0.97599748 Se
atom       3.35295502     12.34043989      2.66179494 Mo
atom       4.98556312     13.30692295      4.34062553 Se
atom       4.98444581     13.30678410      0.98204301 Se
atom      13.16595776      0.98202680      2.66251082 Mo
atom      14.80440031      1.91920636      4.34093736 Se
atom      14.79991817      1.92493096      0.98184558 Se
atom      11.51309222      3.84369627      2.66978203 Mo
atom      13.14658960      4.78719399      4.35058417 Se
atom      13.14399701      4.79392007      0.99145239 Se
atom       9.95635739      6.71702497      2.67143696 Mo
atom      11.59274255      7.66315144      4.35402261 Se
atom      11.59449930      7.66048956      0.99076648 Se
atom       8.33605804      9.57962614      2.66597603 Mo
atom       9.97142024     10.52767406      4.34505434 Se
atom       9.97481056     10.52215150      0.98710416 Se
atom       6.66582923     12.41362994      2.66070468 Mo
atom       8.30195293     13.36045950      4.34148028 Se
atom       8.30353133     13.35786480      0.97827490 Se
# 
# What follows is the current estimated Hessian matrix constructed by the BFGS algorithm.
# This is NOT the true Hessian matrix of the system.
# If you do not want this information here, switch it off using the "hessian_to_restart_geometry" keyword.
# 
trust_radius             0.0005051972
hessian_file
