# 
# This is the geometry file that corresponds to the current relaxation step.
# If you do not want this file to be written, set the "write_restart_geometry" flag to .false.
#  aims_uuid : D9D02A9A-048C-42EA-A25F-46AE72828BC3                                
# 
  set_vacuum_level        52.665000
lattice_vector     16.60000000      0.00000000      0.00000000
lattice_vector     -8.30000000     14.37602170      0.00000000
lattice_vector      0.00000000      0.00000000    100.00000000
atom       0.03951617      0.99643154      2.66500000 Mo
atom       1.71317029      1.94788693      4.30204656 Se
atom       1.71317029      1.94788693      1.02795344 Se
atom      -1.59744485      3.88797386      2.66500000 Mo
atom       0.09338385      4.96332068      4.23231275 Se
atom       0.09338385      4.96332068      1.09768725 Se
atom      -3.37154507      6.72821069      2.66500000 Mo
atom      -1.80947967      7.83768370      4.29229446 Se
atom      -1.80947967      7.83768370      1.03770554 Se
atom      -4.96400458      9.57938391      2.66500000 Mo
atom      -3.25981827     10.54781706      4.29813036 Se
atom      -3.25981827     10.54781706      1.03186964 Se
atom      -6.62524676     12.45037341      2.66500000 Mo
atom      -4.95699155     13.41064003      4.28933428 Se
atom      -4.95699155     13.41064003      1.04066572 Se
atom       3.35545311      0.95972416      2.66500000 Mo
atom       5.05567329      1.86524997      4.28297893 Se
atom       5.05567329      1.86524997      1.04702107 Se
atom       1.76939434      3.85544732      2.66500000 Mo
atom       3.44332669      4.95244147      4.13124247 Se
atom       3.44332669      4.95244147      1.19875753 Se
atom      -0.12038810      6.97266284      2.66500000 Mo
atom       1.22286911      8.15734949      4.40087681 Se
atom       1.22286911      8.15734949      0.92912319 Se
atom      -1.55782918      9.74320057      2.66500000 Mo
atom      -3.27748937     12.44310132      2.66500000 Mo
atom      -1.56580507     13.27410163      4.30395193 Se
atom      -1.56580507     13.27410163      1.02604807 Se
atom       6.70862017      0.84834281      2.66500000 Mo
atom       8.34201373      1.84183816      4.29965419 Se
atom       8.34201373      1.84183816      1.03034581 Se
atom       5.12084102      3.79160819      2.66500000 Mo
atom       6.74037408      4.71534546      4.34293015 Se
atom       6.74037408      4.71534546      0.98706985 Se
atom       4.87291387      7.49660200      4.11752511 Se
atom       4.87291387      7.49660200      1.21247489 Se
atom       1.24384768      9.84245729      2.66500000 Mo
atom       3.21596600     10.45234580      4.22399806 Se
atom       3.21596600     10.45234580      1.10600194 Se
atom      -0.03774632     12.15393997      2.66500000 Mo
atom       1.58997410     13.25435110      4.27283309 Se
atom       1.58997410     13.25435110      1.05716691 Se
atom       9.97301234      0.85912815      2.66500000 Mo
atom      11.63348004      1.86348040      4.28461157 Se
atom      11.63348004      1.86348040      1.04538843 Se
atom       8.35559301      3.76605655      2.66500000 Mo
atom      10.00849888      4.75748259      4.29133698 Se
atom      10.00849888      4.75748259      1.03866302 Se
atom       6.71360446      6.57730257      2.66500000 Mo
atom       8.29815073      7.62958204      4.29590306 Se
atom       8.29815073      7.62958204      1.03409694 Se
atom       5.01137019      9.51211382      2.66500000 Mo
atom       6.62871024     10.49849243      4.30716921 Se
atom       6.62871024     10.49849243      1.02283079 Se
atom       3.31591283     12.41962016      2.66500000 Mo
atom       4.97936951     13.39135003      4.29590771 Se
atom       4.97936951     13.39135003      1.03409229 Se
atom      13.32014805      0.93910871      2.66500000 Mo
atom      14.97663149      1.95550521      4.28796586 Se
atom      14.97663149      1.95550521      1.04203414 Se
atom      11.66746072      3.80190414      2.66500000 Mo
atom      13.31988391      4.80027312      4.29239389 Se
atom      13.31988391      4.80027312      1.03760611 Se
atom       9.96868799      6.68441953      2.66500000 Mo
atom      11.58156780      7.67001810      4.31072009 Se
atom      11.58156780      7.67001810      1.01927991 Se
atom       8.28770975      9.55485491      2.66500000 Mo
atom       9.96173775     10.52901987      4.28891142 Se
atom       9.96173775     10.52901987      1.04108858 Se
atom       6.62957871     12.41810920      2.66500000 Mo
atom       8.30056895     13.42401152      4.27560579 Se
atom       8.30056895     13.42401152      1.05439421 Se
# 
# What follows is the current estimated Hessian matrix constructed by the BFGS algorithm.
# This is NOT the true Hessian matrix of the system.
# If you do not want this information here, switch it off using the "hessian_to_restart_geometry" keyword.
# 
trust_radius             0.2000000030
hessian_file
