&CONTROL
calculation = "scf"
pseudo_dir = "" ! insert pseudopotential directory
prefix = "unfold"
disk_io = "low"
/

&SYSTEM
ibrav = 0
nat = 74
ntyp = 2
ecutwfc = 30
noncolin = .true.
lspinorb = .true.
/

&ELECTRONS
/

ATOMIC_SPECIES
Se 1. ! add Se pseudo name
Mo 1. ! add Mo pseudo name

CELL_PARAMETERS angstrom
16.60000000	0.00000000	0.00000000
-8.30000000	14.37602170	0.00000000
0.00000000	0.00000000	100.00000000

ATOMIC_POSITIONS angstrom
Mo	-0.00047389	0.96821934	2.67553288
Se	1.65998768	1.96070579	4.31957021
Se	1.65998758	1.92042327	1.00304332
Mo	-1.64782272	3.85286410	2.67371123
Se	0.05349798	4.88672243	4.29683390
Se	-0.01486564	4.81472151	0.96658675
Mo	-3.29718147	6.70973773	2.67371685
Se	-1.55114571	7.66616726	4.29684802
Se	-1.64768481	7.64297497	0.96657133
Mo	-4.97170495	9.57871235	2.67552592
Se	-3.28191449	10.52043364	4.31955202
Se	-3.31677314	10.54056320	1.00304446
Mo	-6.63997013	12.45919373	2.67534017
Se	-4.97683374	13.41943799	4.33725967
Se	-4.97623640	13.41977984	1.01381180
Mo	3.32046690	0.96823076	2.67553915
Se	4.96683861	1.93575857	4.34632215
Se	4.98660905	1.92265574	1.01908995
Mo	1.66000906	3.87704694	2.63219178
Se	3.26647841	4.88675071	4.29683766
Se	3.33483132	4.81475883	0.96659190
Mo	0.07688187	6.75316397	2.58178032
Se	1.66000604	7.66725238	0.86800557
Mo	-1.62228658	9.56226199	2.63219571
Se	0.05533447	10.44875480	4.29684199
Se	0.02714045	10.54394644	0.96656207
Mo	-3.31122081	12.45467387	2.67552755
Se	-1.65015979	13.39674382	4.34634076
Se	-1.65159693	13.42041017	1.01909745
Mo	6.63860366	0.95758172	2.69253229
Se	8.29562974	1.91431635	4.36224410
Se	8.30167217	1.91778988	1.03351964
Mo	4.96775965	3.85288363	2.67371778
Se	6.62064441	4.80317854	4.35041854
Se	6.64337600	4.79004046	1.02065001
Mo	3.24313146	6.75319041	2.58178393
Se	4.87113897	7.66614933	4.29685202
Se	4.96768890	7.64297144	0.96658501
Mo	1.65997460	9.49532553	2.58176340
Se	3.26466922	10.44874084	4.29682393
Se	3.29286059	10.54394103	0.96656357
Mo	0.01062436	12.43904202	2.67372223
Se	1.66002035	13.39534678	4.35043861
Se	1.66001867	13.42157707	1.02062926
Mo	9.95996586	0.95406071	2.69736960
Se	11.62433184	1.91430601	4.36224700
Se	11.61830223	1.91778935	1.03352339
Mo	8.29622043	3.83579810	2.69737763
Se	9.96000153	4.79704466	4.36224049
Se	9.95998892	4.79006139	1.03352059
Mo	6.61716378	6.70976492	2.67371573
Se	8.27698481	7.66913305	4.34632030
Se	8.29820667	7.65854706	1.01908075
Mo	4.94233037	9.56227813	2.63219946
Se	6.60195791	10.52043946	4.31957440
Se	6.63681960	10.54058206	1.00303567
Mo	3.30940862	12.43903132	2.67371128
Se	4.97017550	13.39675289	4.34632312
Se	4.97164159	13.42040635	1.01910177
Mo	13.28137359	0.95761813	2.69253653
Se	14.95319291	1.93574891	4.34633495
Se	14.93340737	1.92263978	1.01910547
Mo	11.62378132	3.83580242	2.69736964
Se	13.29934032	4.80317454	4.35044309
Se	13.27659116	4.79005197	1.02062879
Mo	9.96002798	6.71043168	2.69252408
Se	11.64300476	7.66913635	4.34632621
Se	11.62178898	7.65856110	1.01909326
Mo	8.29168383	9.57865355	2.67552464
Se	9.96002018	10.53873998	4.33725348
Se	9.96001864	10.53805815	1.01379940
Mo	6.63123147	12.45468977	2.67554314
Se	8.29681508	13.41942106	4.33725472
Se	8.29621178	13.41975627	1.01380452

K_POINTS automatic
4 4 1 0 0 0