# 
# This is the geometry file that corresponds to the current relaxation step.
# If you do not want this file to be written, set the "write_restart_geometry" flag to .false.
#  aims_uuid : 45BCFAF3-D333-482E-AB30-9B8E39832284                                
# 
lattice_vector     15.72118630     -0.00130770      0.00000000
lattice_vector     -7.86163315     13.61413775      0.00000000
lattice_vector      0.00000000      0.00000000    103.10805205
atom       7.07347569     13.15929526     51.54904652 Mo
atom       0.78510549      0.45430186     53.10389986 S
atom       0.78639674      0.45352682     49.99558331 S
atom      13.36299594      2.26781558     51.54901461 Mo
atom      -0.78629315      3.17543502     53.10398752 S
atom      -0.78629122      3.17692898     49.99545331 S
atom      11.79225932      4.99412809     51.54760840 Mo
atom      -2.35831335      5.89828043     53.10560928 S
atom      -2.35515179      5.90166491     49.99661657 S
atom      10.21540699      7.71197441     51.54660807 Mo
atom      -3.93528768      8.61968353     53.10479754 S
atom      -3.92853337      8.62360455     49.99903051 S
atom       8.64982636     10.43607909     51.54767251 Mo
atom      -5.50407375     11.34581955     53.10572833 S
atom      -5.49959669     11.34685310     49.99657826 S
atom      -5.50376480     13.16030367     51.55104311 Mo
atom       3.92915643      0.45379950     53.10564616 S
atom       3.93048134      0.44935290     49.99659817 S
atom       0.78565443      2.26888187     51.54901645 Mo
atom       2.35847831      3.17653759     53.10153918 S
atom       2.35794151      3.17623114     49.99533599 S
atom      -0.78645993      4.99125262     51.55101701 Mo
atom       0.78532602      5.89803650     53.10561447 S
atom       0.78216964      5.90142092     49.99661584 S
atom      -2.35794844      7.71439008     51.55332932 Mo
atom      -0.78671303      8.62136423     53.10902260 S
atom      -0.78671131      8.62323872     50.00009112 S
atom      -3.93090599     10.43821972     51.55334870 Mo
atom      -2.35950355     11.34503827     53.10898603 S
atom      -2.35789682     11.34408980     50.00013982 S
atom      -2.35987103     13.15927707     51.55332740 Mo
atom       7.07451214      0.45823253     53.10472845 S
atom       7.07450973      0.45039065     49.99905133 S
atom       3.93229974      2.26536696     51.54760621 Mo
atom       5.49907069      3.17943828     53.10031548 S
atom       5.49956419      3.16088777     49.98263803 S
atom       2.35595817      4.99491041     51.54761325 Mo
atom       3.93126917      5.89442028     53.10025037 S
atom       3.91544214      5.90416686     49.98273372 S
atom       0.78457830      7.71415938     51.55333125 Mo
atom       2.36188539      8.61915562     53.10480821 S
atom       2.35513540      8.62307127     49.99902245 S
atom      -0.78686722     10.43706582     51.55536370 Mo
atom       0.78568954     11.34479304     53.10900036 S
atom       0.78408205     11.34384211     50.00012207 S
atom       0.78565409     13.15901574     51.55332430 Mo
atom      10.21987447      0.45326748     53.10562588 S
atom      10.21854803      0.44882128     49.99661005 S
atom       7.07431803      2.27154863     51.54656424 Mo
atom       8.64953952      3.17915430     53.10030276 S
atom       8.64905129      3.16060572     49.98263477 S
atom       5.47615527      4.97621379     51.53205978 Mo
atom       7.07411261      5.89848038     53.04448043 S
atom       7.07415180      5.89822744     54.97340774 S
atom       7.07410662      5.89856991     50.00528192 S
atom       3.93241381      7.71248935     51.54661194 Mo
atom       5.50632763      8.62236740     53.10034014 S
atom       5.49002156      8.63124178     49.98274316 S
atom       2.35708624     10.43766796     51.55334744 Mo
atom       3.93023060     11.34503168     53.10571334 S
atom       3.92575592     11.34605940     49.99658933 S
atom       3.92960588     13.15952521     51.55103897 Mo
atom      13.36392477      0.45326410     53.10392177 S
atom      13.36263699      0.45248882     49.99555689 S
atom      10.21637699      2.26485552     51.54760325 Mo
atom      11.79015142      3.17575771     53.10153949 S
atom      11.79069120      3.17544926     49.99532755 S
atom       8.67210187      4.97592422     51.53204754 Mo
atom      10.21692548      5.89390695     53.10024408 S
atom      10.23275486      5.90364575     49.98272289 S
atom       7.07389704      7.74352484     51.53212444 Mo
atom       8.64144053      8.62209029     53.10034596 S
atom       8.65774543      8.63096687     49.98273629 S
atom       5.49759069     10.43637250     51.54767424 Mo
atom       7.07369396     11.34335201     53.10156388 S
atom       7.07369387     11.34394153     49.99542701 S
# 
# What follows is the current estimated Hessian matrix constructed by the BFGS algorithm.
# This is NOT the true Hessian matrix of the system.
# If you do not want this information here, switch it off using the "hessian_to_restart_geometry" keyword.
# 
trust_radius             0.0007081517
hessian_file
