# 
# This is the geometry file that corresponds to the current relaxation step.
# If you do not want this file to be written, set the "write_restart_geometry" flag to .false.
#  aims_uuid : BB70DF3A-61B1-4EEB-AEC5-9F2CB7790DD1                                
# 
  set_vacuum_level        54.010642
lattice_vector     15.66599045      0.00000000      0.00000000
lattice_vector     -7.83292280     13.56702030      0.00000000
lattice_vector      0.00000000      0.00000000     99.99930752
atom       1.56596157      0.90420066      3.07947801 Mo
atom      -0.00104175      1.80975935      4.62320041 S
atom       0.00015718      1.80505372      1.53131194 S
atom       0.00236322      3.61497212      3.07355367 Mo
atom      -1.56583695      4.52315728      4.61898312 S
atom      -1.56662854      4.52269789      1.53001268 S
atom      -1.56824048      6.33535452      3.07355159 Mo
atom      -3.13331396      7.23500362      4.62318628 S
atom      -3.13676467      7.23840708      1.53130272 S
atom      -3.13405756      9.04485968      3.07947749 Mo
atom      -4.69974356      9.94895737      4.62665736 S
atom      -4.69974413      9.95092342      1.53486999 S
atom      -4.69973646     11.75849675      3.08158685 Mo
atom      -6.26683999     12.66324252      4.62666380 S
atom      -6.26515469     12.66225085      1.53487828 S
atom       4.70044159      0.90420020      3.07947690 Mo
atom       3.13320930      1.81465307      4.62212514 S
atom       3.13320844      1.80636438      1.53370881 S
atom       3.13321626      3.62159492      3.07227427 Mo
atom       1.56369693      4.52663818      4.61746208 S
atom       1.56385271      4.50694234      1.51656960 S
atom       1.54036750      6.31652420      3.05677756 Mo
atom       0.00195795      7.23162010      4.61748243 S
atom      -0.01502053      7.24164407      1.51656612 S
atom       0.00296165      9.04339247      3.07231309 Mo
atom      -1.56193406      9.94686744      4.62212820 S
atom      -1.56907654      9.95101005      1.53374320 S
atom      -1.56678402     11.75937493      3.07949511 Mo
atom      -3.13261819     12.66324282      4.62666382 S
atom      -3.13430510     12.66225097      1.53487609 S
atom       7.83333681      0.90506435      3.07725601 Mo
atom       6.26745937      1.80975950      4.62319937 S
atom       6.26625952      1.80505377      1.53130861 S
atom       6.26406505      3.61497057      3.07355123 Mo
atom       4.70275033      4.52663718      4.61746031 S
atom       4.70259274      4.50694340      1.51656788 S
atom       4.72609019      6.31652386      3.05677675 Mo
atom       3.13323660      7.23603619      4.55933063 S
atom       3.13323429      7.23585385      6.47970187 S
atom       3.13323663      7.23611820      1.53881737 S
atom       3.13324268      9.07532905      3.05684205 Mo
atom       1.57151112      9.95007155      4.61753086 S
atom       1.55438771      9.95980715      1.51661974 S
atom       1.56264533     11.75807067      3.07361604 Mo
atom       0.00096703     12.66364757      4.62322199 S
atom      -0.00367148     12.66492117      1.53134524 S
atom      10.96619596      0.90500326      3.07526796 Mo
atom       9.40056728      1.80989267      4.62163822 S
atom       9.39930429      1.80913154      1.53035168 S
atom       9.39973020      3.61820343      3.07523546 Mo
atom       7.83228153      4.52315761      4.61898029 S
atom       7.83307355      4.52269946      1.53001236 S
atom       7.83470281      6.33535707      3.07355122 Mo
atom       6.26451698      7.23162074      4.61748104 S
atom       6.28149515      7.24164399      1.51656755 S
atom       6.26352841      9.04339440      3.07231448 Mo
atom       4.69499139      9.95006923      4.61753252 S
atom       4.71211502      9.95980728      1.51662157 S
atom       4.70387440     11.75806973      3.07361811 Mo
atom       3.13326678     12.66209874      4.61904221 S
atom       3.13326807     12.66298562      1.53007180 S
atom      14.09905357      0.90506590      3.07725814 Mo
atom      12.53183880      1.80989237      4.62164068 S
atom      12.53310361      1.80913125      1.53035170 S
atom      12.53269149      3.61820152      3.07523660 Mo
atom      10.96621848      4.52162599      4.62161267 S
atom      10.96621940      4.52308843      1.53033570 S
atom      10.96622366      6.33129596      3.07723066 Mo
atom       9.39978897      7.23500451      4.62318832 S
atom       9.40323990      7.23840867      1.53130095 S
atom       9.40054516      9.04485884      3.07947815 Mo
atom       7.82843876      9.94686660      4.62213149 S
atom       7.83558127      9.95101021      1.53374292 S
atom       7.83329896     11.75937221      3.07949693 Mo
atom       6.26556603     12.66364842      4.62322432 S
atom       6.27020476     12.66492249      1.53134749 S
# 
# What follows is the current estimated Hessian matrix constructed by the BFGS algorithm.
# This is NOT the true Hessian matrix of the system.
# If you do not want this information here, switch it off using the "hessian_to_restart_geometry" keyword.
# 
trust_radius             0.0002522757
hessian_file
