# 
# This is the geometry file that corresponds to the current relaxation step.
# If you do not want this file to be written, set the "write_restart_geometry" flag to .false.
#  aims_uuid : 0E399DAF-DE22-48F5-A62E-FE333E4371FE                                
# 
lattice_vector     16.55000000      0.00000000      0.00000000
lattice_vector     -8.27500000     14.33272043      0.00000000
lattice_vector      0.00000000      0.00000000    100.33000000
atom      -0.00897619      0.93882919      2.66500000 W
atom       1.64835446      1.88310986      4.34554700 Se
atom       1.64835446      1.88310986      0.98445300 Se
atom      -1.64548586      3.82754878      2.66500000 W
atom       0.02406192      4.79147753      4.33190698 Se
atom       0.02406192      4.79147753      0.99809302 Se
atom      -3.32888294      6.68915909      2.66500000 W
atom      -1.68248676      7.65233098      4.34554538 Se
atom      -1.68248676      7.65233098      0.98445462 Se
atom      -4.96499974      9.55711558      2.66500000 W
atom      -3.31637384     10.51435878      4.34896676 Se
atom      -3.31637384     10.51435878      0.98103324 Se
atom      -6.61827833     12.42073902      2.66500000 W
atom      -4.96500470     13.36982974      4.34897227 Se
atom      -4.96500470     13.36982974      0.98102773 Se
atom       3.31000446      0.93887191      2.66500000 W
atom       4.97165566      1.88312395      4.34553413 Se
atom       4.97165566      1.88312395      0.98446587 Se
atom       1.68281425      3.79280968      2.66500000 W
atom       3.30999845      4.74556089      4.33090959 Se
atom       3.30999845      4.74556089      0.99909041 Se
atom      -0.01138454      6.72737256      2.66500000 W
atom       1.62728064      7.66015838      4.33093111 Se
atom       1.62728064      7.66015838      0.99906889 Se
atom      -1.66939907      9.56348544      2.66500000 W
atom      -0.02085196     10.53038581      4.34556470 Se
atom      -0.02085196     10.53038581      0.98443530 Se
atom      -3.31169749     12.42068834      2.66500000 W
atom      -1.66027293     13.37415562      4.35305671 Se
atom      -1.66027293     13.37415562      0.97694329 Se
atom       6.62897238      0.93885931      2.66500000 W
atom       8.27451315      1.91348366      4.34568473 Se
atom       8.27451315      1.91348366      0.98431527 Se
atom       4.93718160      3.79281190      2.66500000 W
atom       6.59594559      4.79146488      4.33190856 Se
atom       6.59594559      4.79146488      0.99809144 Se
atom       4.99273800      7.66015165      4.33094323 Se
atom       4.99273800      7.66015165      0.99905677 Se
atom       1.61573081      9.54569575      2.66500000 W
atom       3.30998308     10.48287594      4.33193530 Se
atom       3.30998308     10.48287594      0.99806470 Se
atom      -0.00996289     12.43776597      2.66500000 W
atom       1.65687752     13.37554827      4.34567788 Se
atom       1.65687752     13.37554827      0.98432212 Se
atom       9.93006863      0.95555878      2.66500000 W
atom      11.58499586      1.91101704      4.34548293 Se
atom      11.58499586      1.91101704      0.98451707 Se
atom       8.26548552      3.82754650      2.66500000 W
atom       9.92762859      4.77675433      4.34568086 Se
atom       9.92762859      4.77675433      0.98431914 Se
atom       6.63139648      6.72735616      2.66500000 W
atom       8.30249069      7.65231331      4.34554062 Se
atom       8.30249069      7.65231331      0.98445938 Se
atom       5.00422294      9.54570370      2.66500000 W
atom       6.64084922     10.53035815      4.34555962 Se
atom       6.64084922     10.53035815      0.98444038 Se
atom       3.31000328     12.41066454      2.66500000 W
atom       4.96311592     13.37554421      4.34567001 Se
atom       4.96311592     13.37554421      0.98432999 Se
atom      13.23990341      0.95556631      2.66500000 W
atom      14.89548293      1.91346953      4.34568069 Se
atom      14.89548293      1.91346953      0.98431931 Se
atom      11.58500082      3.82195413      2.66500000 W
atom      13.24235730      4.77676632      4.34567930 Se
atom      13.24235730      4.77676632      0.98432070 Se
atom       9.94891019      6.68917105      2.66500000 W
atom      11.58501348      7.65019918      4.35304971 Se
atom      11.58501348      7.65019918      0.97695029 Se
atom       8.28938992      9.56347340      2.66500000 W
atom       9.93640101     10.51433682      4.34895661 Se
atom       9.93640101     10.51433682      0.98104339 Se
atom       6.62993566     12.43776452      2.66500000 W
atom       8.28027008     13.37414289      4.35306106 Se
atom       8.28027008     13.37414289      0.97693894 Se
# 
# What follows is the current estimated Hessian matrix constructed by the BFGS algorithm.
# This is NOT the true Hessian matrix of the system.
# If you do not want this information here, switch it off using the "hessian_to_restart_geometry" keyword.
# 
trust_radius             0.0004642472
hessian_file
