#
# temporary structure-file for finite-difference calculation of forces
# displacement  -0.0020 of \# atom    36 direction     0
#
lattice_vector   15.90000000    0.00000000    0.00000000
lattice_vector   -7.95000000   13.76980390    0.00000000
lattice_vector    0.00000000    0.00000000  100.00000000
atom    1.59573974    0.92170007    3.07250000  Mo
atom    0.00001079    1.83908508    4.63077013   S
atom    0.00001079    1.83908508    1.51422987   S
atom   -0.00001696    3.67485126    3.07250000  Mo
atom   -1.61296665    4.58356198    4.62934187   S
atom   -1.61296665    4.58356198    1.51565813   S
atom   -1.60444117    6.41791611    3.07250000  Mo
atom   -3.20739110    7.32851042    4.62563801   S
atom   -3.20739110    7.32851042    1.51936199   S
atom   -3.19453650    9.17201664    3.07250000  Mo
atom   -4.78734020   10.08179225    4.62934486   S
atom   -4.78734020   10.08179225    1.51565514   S
atom   -4.76787344   11.93297470    3.07250000  Mo
atom   -6.35763253   12.85086424    4.63076820   S
atom   -6.35763253   12.85086424    1.51423180   S
atom    4.78837113    0.95386493    3.07250000  Mo
atom    3.19259356    1.84359054    4.63127934   S
atom    3.19259356    1.84359054    1.51372066   S
atom    3.22008186    3.67047959    3.07250000  Mo
atom    1.61297804    4.58352415    4.62934135   S
atom    1.61297804    4.58352415    1.51565865   S
atom    1.60442816    6.41787354    3.07250000  Mo
atom    0.00002084    7.33708485    4.62600609   S
atom    0.00002084    7.33708485    1.51899391   S
atom   -0.00001983    9.18025974    3.07250000  Mo
atom   -1.59624244   10.10182718    4.62600531   S
atom   -1.59624244   10.10182718    1.51899469   S
atom   -1.59013345   11.95088236    3.07250000  Mo
atom   -3.17441833   12.87540067    4.62935159   S
atom   -3.17441833   12.87540067    1.51564841   S
atom    7.94992685    0.97595606    3.07250000  Mo
atom    6.40324493    1.94555182    4.62715657   S
atom    6.40324493    1.94555182    1.51784343   S
atom    6.51087771    3.75934353    3.07250000  Mo
atom    4.88643001    4.57307744    4.62716411   S
atom    4.88643001    4.57307744    1.51783589   S
atom    4.81813494    6.39737915    3.07250000  Mo
atom    3.20747626    7.32843872    4.62562187   S
atom    3.20747626    7.32843872    1.51937813   S
atom    3.19453157    9.17198509    3.07250000  Mo
atom    1.59625889   10.10181304    4.62600486   S
atom    1.59625889   10.10181304    1.51899514   S
atom    1.59005940   11.95088398    3.07250000  Mo
atom   -0.00001995   12.88372930    4.62564985   S
atom   -0.00001995   12.88372930    1.51935015   S
atom   11.11151664    0.95396760    3.07250000  Mo
atom    9.49665581    1.94568496    4.62713601   S
atom    9.49665581    1.94568496    1.51786399   S
atom    9.38889769    3.75949839    3.07250000  Mo
atom    7.95002352    6.25208450    3.07250000  Mo
atom    6.43314423    7.25211865    4.62717291   S
atom    6.43314423    7.25211865    1.51782709   S
atom    6.38168798    9.14648136    3.07250000  Mo
atom    4.78740967   10.08176345    4.62933432   S
atom    4.78740967   10.08176345    1.51566568   S
atom    4.76785808   11.93298644    3.07250000  Mo
atom    3.17440038   12.87544815    4.62934099   S
atom    3.17440038   12.87544815    1.51565901   S
atom   14.30423784    0.92172591    3.07250000  Mo
atom   12.70738687    1.84364978    4.63127621   S
atom   12.70738687    1.84364978    1.51372379   S
atom   12.67987661    3.67055134    3.07250000  Mo
atom   11.01353048    4.57315103    4.62713004   S
atom   11.01353048    4.57315103    1.51786996   S
atom   11.07995890    6.39751764    3.07250000  Mo
atom    9.46696596    7.25219927    4.62716063   S
atom    9.46696596    7.25219927    1.51783937   S
atom    9.51838331    9.14655651    3.07250000  Mo
atom    7.95004050   10.08377640    4.63128180   S
atom    7.95004050   10.08377640    1.51371820   S
atom    7.95001079   11.92762525    3.07250000  Mo
atom    6.35767329   12.85087583    4.63076978   S
atom    6.35767329   12.85087583    1.51423022   S
