# 
# This is the geometry file that corresponds to the current relaxation step.
# If you do not want this file to be written, set the "write_restart_geometry" flag to .false.
#  aims_uuid : 591B2B98-4789-4CA5-A927-6ED092B2B95F                                
# 
lattice_vector     15.90000000      0.00000000      0.00000000
lattice_vector     -7.95000000     13.76980392      0.00000000
lattice_vector      0.00000000      0.00000000    100.00000000
atom       0.01484986      0.94374336      2.62261937 W
atom       1.64997249      1.95223722      4.12239344 S
atom       1.57546134      1.84879706      0.99282612 S
atom      -1.53579250      3.70322437      2.63566911 W
atom       0.21654093      4.71491616      4.11141326 S
atom       0.00621875      4.59347402      0.97401653 S
atom      -3.15018940      6.42588991      2.62258357 W
atom      -1.45928860      7.33771000      4.12234071 S
atom      -1.58612332      7.32488207      0.99276948 S
atom      -4.77010555      9.17382628      2.61757047 W
atom      -3.15024902     10.08409245      4.16046275 S
atom      -3.19013769     10.09588203      1.03294486 S
atom      -6.36531993     11.93675856      2.61759624 W
atom      -4.76704866     12.88441024      4.16050248 S
atom      -4.77680280     12.84399958      1.03295778 S
atom       3.18017322      0.94943869      2.56682910 W
atom       4.71795839      1.91071002      4.13631024 S
atom       4.79377152      1.84619851      0.99960982 S
atom       1.67781379      3.74233444      2.48608803 W
atom       3.20770761      4.59899769      0.86123449 S
atom       0.10485905      6.46674356      2.48603443 W
atom       1.61168977      7.36336827      0.86117048 S
atom      -1.56261198      9.16430028      2.56677659 W
atom       0.03874812     10.01541492      4.13626190 S
atom       0.02078890     10.11337962      0.99954523 S
atom      -3.17717427     11.93545478      2.60527686 W
atom      -1.59680098     12.84788344      4.18500830 S
atom      -1.57912604     12.85810749      1.04829856 S
atom       6.35364368      0.92786805      2.61885421 W
atom       7.92730962      1.83874505      4.21235971 S
atom       7.96621116      1.83869668      1.07542051 S
atom       4.69926540      3.70390437      2.51853036 W
atom       6.23953115      4.58675996      4.15285807 S
atom       6.36085113      4.56791527      1.01676868 S
atom       3.11174486      6.38658725      2.42350946 W
atom       4.57053540      7.22877213      4.10489519 S
atom       4.74147077      7.32744302      0.95858253 S
atom       1.58232307      9.10267824      2.51843588 W
atom       3.11696587      9.99513092      4.15280226 S
atom       3.16138795     10.10964841      1.01672200 S
atom       0.00537079     11.92341072      2.61882188 W
atom       1.58105326     12.83079032      4.21232916 S
atom       1.60047602     12.86449785      1.07539829 S
atom       9.54226192      0.91929770      2.65879899 W
atom      11.13664833      1.83981562      4.23682200 S
atom      11.14093512      1.84229162      1.10116426 S
atom       7.93035087      3.67228799      2.63937437 W
atom       9.52067023      4.59499298      4.22114623 S
atom       9.54729317      4.58020733      1.08739130 S
atom       6.29274656      6.39951265      2.58678301 W
atom       7.88546794      7.31983581      4.18380700 S
atom       7.93710107      7.32817425      1.06115608 S
atom       4.71349955      9.13484087      2.58676176 W
atom       6.30686441     10.05400456      4.18381233 S
atom       6.33995350     10.09454240      1.06114094 S
atom       3.17048703     11.91668711      2.63934971 W
atom       4.76468257     12.83253687      4.22115765 S
atom       4.76523671     12.86300286      1.08737796 S
atom      12.73221559      0.92540891      2.66689881 W
atom      14.35427350      1.86919962      4.21463894 S
atom      14.30688821      1.85411534      1.08418234 S
atom      11.14255106      3.67882472      2.66689675 W
atom      12.77094245      4.61166766      4.21463302 S
atom      12.73417561      4.57813434      1.08415817 S
atom       9.52883051      6.42116027      2.64324029 W
atom      11.14842271      7.34564570      4.19521037 S
atom      11.12664576      7.32657822      1.06542608 S
atom       7.92451238      9.16516873      2.62777501 W
atom       9.53189185     10.09315403      4.18554407 S
atom       9.52227090     10.08761984      1.05801882 S
atom       6.35024736     11.92652121      2.64324934 W
atom       7.96069721     12.86684702      4.19522866 S
atom       7.93331280     12.85755403      1.06545734 S
# 
# What follows is the current estimated Hessian matrix constructed by the BFGS algorithm.
# This is NOT the true Hessian matrix of the system.
# If you do not want this information here, switch it off using the "hessian_to_restart_geometry" keyword.
# 
trust_radius             0.0004146773
hessian_file
