# 
# This is the geometry file that corresponds to the current relaxation step.
# If you do not want this file to be written, set the "write_restart_geometry" flag to .false.
#  aims_uuid : 58A47EEE-B6F9-4DA1-AA1C-3247AC31F51D                                
# 
lattice_vector     15.90000000      0.00000000      0.00000000
lattice_vector     -7.95000000     13.76980392      0.00000000
lattice_vector      0.00000000      0.00000000    100.00000000
atom       0.00000000      0.91798693      2.60000000 W
atom       1.59000000      1.83597386      4.17082463 S
atom       1.59000000      1.83597386      1.02917537 S
atom      -1.59000000      3.67194771      2.60000000 W
atom       0.00000000      4.58993464      4.17082463 S
atom       0.00000000      4.58993464      1.02917537 S
atom      -3.18000000      6.42590850      2.60000000 W
atom      -1.59000000      7.34389542      4.17082463 S
atom      -1.59000000      7.34389542      1.02917537 S
atom      -4.77000000      9.17986928      2.60000000 W
atom      -3.18000000     10.09785621      4.17082463 S
atom      -3.18000000     10.09785621      1.02917537 S
atom      -6.36000000     11.93383006      2.60000000 W
atom      -4.77000000     12.85181699      4.17082463 S
atom      -4.77000000     12.85181699      1.02917537 S
atom       3.18000000      0.91798693      2.60000000 W
atom       4.77000000      1.83597386      4.17082463 S
atom       4.77000000      1.83597386      1.02917537 S
atom       1.59000000      3.67194771      2.60000000 W
atom       3.18000000      4.58993464      4.17082463 S
atom       3.18000000      4.58993464      1.02917537 S
atom       0.00000000      6.42590850      2.60000000 W
atom       1.59000000      7.34389542      4.17082463 S
atom       1.59000000      7.34389542      1.02917537 S
atom      -1.59000000      9.17986928      2.60000000 W
atom       0.00000000     10.09785621      4.17082463 S
atom       0.00000000     10.09785621      1.02917537 S
atom      -3.18000000     11.93383006      2.60000000 W
atom      -1.59000000     12.85181699      4.17082463 S
atom      -1.59000000     12.85181699      1.02917537 S
atom       6.36000000      0.91798693      2.60000000 W
atom       7.95000000      1.83597386      4.17082463 S
atom       7.95000000      1.83597386      1.02917537 S
atom       4.77000000      3.67194771      2.60000000 W
atom       6.36000000      4.58993464      4.17082463 S
atom       6.36000000      4.58993464      1.02917537 S
atom       3.18000000      6.42590850      2.60000000 W
atom       4.77000000      7.34389542      4.17082463 S
atom       4.77000000      7.34389542      1.02917537 S
atom       1.59000000      9.17986928      2.60000000 W
atom       3.18000000     10.09785621      4.17082463 S
atom       3.18000000     10.09785621      1.02917537 S
atom       0.00000000     11.93383006      2.60000000 W
atom       1.59000000     12.85181699      4.17082463 S
atom       1.59000000     12.85181699      1.02917537 S
atom       9.54000000      0.91798693      2.60000000 W
atom      11.13000000      1.83597386      4.17082463 S
atom      11.13000000      1.83597386      1.02917537 S
atom       7.95000000      3.67194771      2.60000000 W
atom       9.54000000      4.58993464      4.17082463 S
atom       9.54000000      4.58993464      1.02917537 S
atom       6.36000000      6.42590850      2.60000000 W
atom       7.95000000      7.34389542      4.17082463 S
atom       7.95000000      7.34389542      1.02917537 S
atom       4.77000000      9.17986928      2.60000000 W
atom       6.36000000     10.09785621      4.17082463 S
atom       6.36000000     10.09785621      1.02917537 S
atom       3.18000000     11.93383006      2.60000000 W
atom       4.77000000     12.85181699      4.17082463 S
atom       4.77000000     12.85181699      1.02917537 S
atom      12.72000000      0.91798693      2.60000000 W
atom      14.31000000      1.83597386      4.17082463 S
atom      14.31000000      1.83597386      1.02917537 S
atom      11.13000000      3.67194771      2.60000000 W
atom      12.72000000      4.58993464      4.17082463 S
atom      12.72000000      4.58993464      1.02917537 S
atom       9.54000000      6.42590850      2.60000000 W
atom      11.13000000      7.34389542      4.17082463 S
atom      11.13000000      7.34389542      1.02917537 S
atom       7.95000000      9.17986928      2.60000000 W
atom       9.54000000     10.09785621      4.17082463 S
atom       9.54000000     10.09785621      1.02917537 S
atom       6.36000000     11.93383006      2.60000000 W
atom       7.95000000     12.85181699      4.17082463 S
atom       7.95000000     12.85181699      1.02917537 S
# 
# What follows is the current estimated Hessian matrix constructed by the BFGS algorithm.
# This is NOT the true Hessian matrix of the system.
# If you do not want this information here, switch it off using the "hessian_to_restart_geometry" keyword.
# 
trust_radius             0.2000000030
hessian_file
