# 
# This is the geometry file that corresponds to the current relaxation step.
# If you do not want this file to be written, set the "write_restart_geometry" flag to .false.
#  aims_uuid : 6F9BB98C-F462-4538-AED6-600FDF2FA9E7                                
# 
lattice_vector     15.90000000      0.00000000      0.00000000
lattice_vector     -7.95000000     13.76980392      0.00000000
lattice_vector      0.00000000      0.00000000    100.00000000
atom      -0.00016857      0.91790557      2.59915681 W
atom       1.59080857      1.83644138      4.16820441 S
atom       1.59009256      1.83603412      1.02879046 S
atom      -1.58999962      3.67137056      2.60080087 W
atom      -0.00029136      4.58904503      4.17209132 S
atom      -0.00313256      4.59173198      1.02948053 S
atom      -3.17875080      6.42567343      2.60262829 W
atom      -1.58999495      7.34363304      4.17510828 S
atom      -1.58999875      7.34512577      1.03222067 S
atom      -4.76959742      9.18105421      2.60262974 W
atom      -3.18023518     10.09799245      4.17512070 S
atom      -3.17894534     10.09723712      1.03220494 S
atom      -6.36054133     11.93414142      2.60080500 W
atom      -4.77091665     12.85200792      4.17207759 S
atom      -4.77001258     12.84820092      1.02948713 S
atom       3.18253413      0.91498605      2.59770714 W
atom       4.76807056      1.83834095      4.16881346 S
atom       4.76785047      1.82168237      1.01578404 S
atom       1.58865949      3.67566207      2.59771125 W
atom       3.18110328      4.58706505      4.16883219 S
atom       3.16656150      4.59521454      1.01577693 S
atom      -0.00121416      6.42569020      2.60262195 W
atom       1.59352489      7.34186123      4.17071091 S
atom       1.58782360      7.34516049      1.03197660 S
atom      -1.59001897      9.17988662      2.60428373 W
atom       0.00023490     10.09799845      4.17510650 S
atom      -0.00105438     10.09724709      1.03222191 S
atom      -3.18082254     11.93286845      2.60261915 W
atom      -1.59000746     12.85587966      4.17070186 S
atom      -1.59000266     12.84928761      1.03196340 S
atom       6.36002420      0.92131871      2.59684840 W
atom       7.95193991      1.83836474      4.16882930 S
atom       7.95217186      1.82169303      1.01578268 S
atom       4.74118085      3.65533273      2.58400328 W
atom       6.36000747      4.58988686      4.11020779 S
atom       6.35998344      4.58976521      6.05732297 S
atom       6.35999130      4.58993368      1.04671273 S
atom       3.18289307      6.42421998      2.59686201 W
atom       4.77302437      7.34436528      4.16882950 S
atom       4.75870959      7.35289570      1.01581720 S
atom       1.58959406      9.18106537      2.60262718 W
atom       3.18062030     10.09856974      4.17210761 S
atom       3.17688640     10.09967889      1.02948903 S
atom       0.00082421     11.93290716      2.60262132 W
atom       1.59092060     12.85200204      4.17210502 S
atom       1.59001734     12.84819848      1.02946778 S
atom       9.53745524      0.91496455      2.59771161 W
atom      11.12918388      1.83645117      4.16819666 S
atom      11.12990347      1.83604087      1.02881312 S
atom       7.97879269      3.65532357      2.58399987 W
atom       9.53889692      4.58706110      4.16883767 S
atom       9.55346344      4.59521775      1.01579434 S
atom       6.36000424      6.45914897      2.58402806 W
atom       7.94697598      7.34436218      4.16884563 S
atom       7.96128771      7.35290456      1.01580828 S
atom       4.76612643      9.17919215      2.59773380 W
atom       6.35999442     10.09693036      4.16822952 S
atom       6.35999353     10.09774423      1.02880895 S
atom       3.18050456     11.93413532      2.60080727 W
atom       4.77079550     12.85228221      4.17086911 S
atom       4.76980501     12.85170147      1.02867107 S
atom      12.72015907      0.91789868      2.59916165 W
atom      14.31000416      1.83506518      4.17086246 S
atom      14.30999999      1.83621136      1.02866536 S
atom      11.13132695      3.67566867      2.59771991 W
atom      12.72030457      4.58904308      4.17210186 S
atom      12.72313286      4.59173395      1.02947681 S
atom       9.53711374      6.42425067      2.59686734 W
atom      11.12648335      7.34187463      4.17071432 S
atom      11.13218062      7.34516453      1.03197728 S
atom       7.95387796      9.17918679      2.59773414 W
atom       9.53938025     10.09856672      4.17210087 S
atom       9.54311496     10.09966734      1.02948990 S
atom       6.35999707     11.93401859      2.59916853 W
atom       7.94920263     12.85228267      4.17087375 S
atom       7.95019116     12.85170158      1.02865928 S
# 
# What follows is the current estimated Hessian matrix constructed by the BFGS algorithm.
# This is NOT the true Hessian matrix of the system.
# If you do not want this information here, switch it off using the "hessian_to_restart_geometry" keyword.
# 
