# 
# This is the geometry file that corresponds to the current relaxation step.
# If you do not want this file to be written, set the "write_restart_geometry" flag to .false.
#  aims_uuid : 91E7CB20-4E56-46F5-A4E1-C88DD128AB76                                
# 
  set_vacuum_level        52.516850
lattice_vector     15.67253790      0.00000000      0.00000000
lattice_vector     -7.83631930     13.57134925      0.00000000
lattice_vector      0.00000000      0.00000000     99.83654525
atom_frac       0.03242126      0.06580018      0.02602119 W
atom_frac       0.16500537      0.13054060      0.04166226 S
atom_frac       0.16497121      0.13049448      0.01037571 S
atom_frac       0.03451218      0.26723650      0.02601991 W
atom_frac       0.17005330      0.33499762      0.04142770 S
atom_frac       0.17002576      0.33499435      0.01060673 S
atom_frac       0.03242303      0.46658206      0.02602213 W
atom_frac       0.16499526      0.53441917      0.04166489 S
atom_frac       0.16497969      0.53443330      0.01037781 S
atom_frac       0.03348112      0.66696342      0.02602313 W
atom_frac       0.16620247      0.73375605      0.04172076 S
atom_frac       0.16619739      0.73375286      0.01032459 S
atom_frac       0.03348125      0.86647764      0.02602278 W
atom_frac       0.16620672      0.93241032      0.04171988 S
atom_frac       0.16619447      0.93239166      0.01032371 S
atom_frac       0.23232317      0.06464509      0.02601996 W
atom_frac       0.36553006      0.13052662      0.04166332 S
atom_frac       0.36553143      0.13050922      0.01037672 S
atom_frac       0.23470213      0.26334380      0.02601434 W
atom_frac       0.36418655      0.32836507      0.04159185 S
atom_frac       0.36412264      0.32824697      0.01043035 S
atom_frac       0.23469513      0.47131575      0.02601791 W
atom_frac       0.36415413      0.53580032      0.04160237 S
atom_frac       0.36414064      0.53579556      0.01044109 S
atom_frac       0.23232107      0.66763649      0.02602247 W
atom_frac       0.36552106      0.73496944      0.04166693 S
atom_frac       0.36553316      0.73495861      0.01037999 S
atom_frac       0.23299638      0.86647831      0.02602223 W
atom_frac       0.36639537      0.93317863      0.04169247 S
atom_frac       0.36639619      0.93316952      0.01035208 S
atom_frac       0.43337888      0.06580036      0.02602158 W
atom_frac       0.56679247      0.13377232      0.04165872 S
atom_frac       0.56679976      0.13377407      0.01038599 S
atom_frac       0.42864401      0.26334394      0.02601889 W
atom_frac       0.56494513      0.33498288      0.04143340 S
atom_frac       0.56496856      0.33500716      0.01061227 S
atom_frac       0.57171102      0.53582859      0.04161535 S
atom_frac       0.57158757      0.53576311      0.01045405 S
atom_frac       0.42864040      0.66525822      0.02602633 W
atom_frac       0.56495283      0.72992089      0.04143818 S
atom_frac       0.56495467      0.72989791      0.01061719 S
atom_frac       0.43337631      0.86753431      0.02602298 W
atom_frac       0.56679213      0.93298009      0.04165983 S
atom_frac       0.56679775      0.93296962      0.01038746 S
atom_frac       0.63320294      0.06658147      0.02602286 W
atom_frac       0.76665299      0.13330534      0.04164101 S
atom_frac       0.76664988      0.13330151      0.01040439 S
atom_frac       0.63272373      0.26723601      0.02602278 W
atom_frac       0.76618143      0.33315606      0.04165932 S
atom_frac       0.76618230      0.33316320      0.01038672 S
atom_frac       0.63661910      0.47131308      0.02602693 W
atom_frac       0.76944719      0.53442345      0.04166908 S
atom_frac       0.76942896      0.53442658      0.01038203 S
atom_frac       0.63661496      0.66525722      0.02603074 W
atom_frac       0.76945641      0.73497985      0.04167005 S
atom_frac       0.76941478      0.73494763      0.01038317 S
atom_frac       0.63271984      0.86544182      0.02602528 W
atom_frac       0.76618557      0.93298304      0.04166028 S
atom_frac       0.76617189      0.93296651      0.01038795 S
atom_frac       0.83337791      0.06658182      0.02602269 W
atom_frac       0.96698608      0.13378143      0.04165778 S
atom_frac       0.96696859      0.13376532      0.01038502 S
atom_frac       0.83337862      0.26675792      0.02602245 W
atom_frac       0.96698406      0.33315757      0.04165791 S
atom_frac       0.96697233      0.33316196      0.01038527 S
atom_frac       0.83415940      0.46658198      0.02602381 W
atom_frac       0.96678530      0.53355851      0.04169330 S
atom_frac       0.96677524      0.53356096      0.01035287 S
atom_frac       0.83531400      0.66763595      0.02602563 W
atom_frac       0.96756321      0.73375924      0.04172204 S
atom_frac       0.96754424      0.73374859      0.01032578 S
atom_frac       0.83415730      0.86753469      0.02602425 W
atom_frac       0.96678878      0.93318451      0.04169312 S
atom_frac       0.96676849      0.93316352      0.01035266 S
# 
# What follows is the current estimated Hessian matrix constructed by the BFGS algorithm.
# This is NOT the true Hessian matrix of the system.
# If you do not want this information here, switch it off using the "hessian_to_restart_geometry" keyword.
# 
