#
# temporary structure-file for finite-difference calculation of forces
# displacement  -0.0002 of \# atom     0 direction     0
#
lattice_vector    3.08234366   -0.00000000   -0.00000000
lattice_vector    0.00000000    3.08234366   -0.00000000
lattice_vector   -0.00000000    0.00000000    3.08234366
atom   -0.00020000    0.00000000    0.00000000  Mo
atom    1.54117183    1.54117183    1.54117183  Mo
