&CONTROL
calculation = "scf"
pseudo_dir = "" ! insert pseudopotential directory
prefix = "unfold"
disk_io = "low"
/

&SYSTEM
ibrav = 0
nat = 75
ntyp = 2
ecutwfc = 30
noncolin = .true.
lspinorb = .true.
/

&ELECTRONS
/

ATOMIC_SPECIES
W 1. ! add W pseudo name
Se 1. ! add Se pseudo name

CELL_PARAMETERS angstrom
16.44037970	-0.00114591	0.00002432
-8.22097504	14.23702869	0.00002609
0.00000002	0.00000005	100.15657054

ATOMIC_POSITIONS angstrom
W	-0.00017632	0.94912477	2.66057029
Se	1.64408958	1.89808100	4.34877805
Se	1.64384203	1.89807031	0.97213720
W	-1.64421716	3.79640051	2.66045814
Se	-0.00012524	4.74536810	4.34880459
Se	-0.00011271	4.74529059	0.97205100
W	-3.28841482	6.64385335	2.66042378
Se	-1.64432263	7.59274293	4.34873015
Se	-1.64437939	7.59269824	0.97200544
W	-4.93265343	9.49125000	2.66050919
Se	-3.28859932	10.44027026	4.34874875
Se	-3.28872219	10.44022160	0.97206968
W	-6.57683634	12.33868219	2.66061469
Se	-4.93277102	13.28774972	4.34881474
Se	-4.93298669	13.28759144	0.97200014
W	3.28798727	0.94885181	2.66028798
Se	4.93205329	1.89785135	4.34858970
Se	4.93202798	1.89778916	0.97182672
W	1.64397647	3.79633314	2.66044966
Se	3.28813406	4.74530723	4.34871170
Se	3.28794578	4.74523631	0.97188692
W	-0.00028680	6.64357174	2.66036737
Se	1.64374086	7.59259926	4.34871801
Se	1.64367722	7.59255670	0.97190669
W	-1.64461760	9.49102858	2.66036567
Se	-0.00065853	10.44001756	4.34876136
Se	-0.00064613	10.44003341	0.97198561
W	-3.28885430	12.33852529	2.66036993
Se	-1.64485117	13.28748895	4.34873135
Se	-1.64481232	13.28741291	0.97192092
W	6.57604478	0.94869122	2.66026451
Se	8.22003204	1.89761605	4.34874171
Se	8.22002526	1.89771811	0.97185827
W	4.93202246	3.79608109	2.66020763
Se	6.57595824	4.74503596	4.34870746
Se	6.57609565	4.74513929	0.97188149
W	3.28778883	6.64346787	2.66029632
Se	4.93175567	7.59243419	4.34875930
Se	4.93182583	7.59252576	0.97199312
W	1.64338047	9.49084288	2.66035794
Se	3.28737498	10.43991079	4.34872000
Se	3.28745766	10.43987733	0.97208766
W	-0.00081543	12.33829037	2.66034900
Se	1.64311182	13.28740781	4.34876354
Se	1.64316830	13.28731420	0.97195860
W	9.86401122	0.94851857	2.66031438
Se	11.50803601	1.89751927	4.34873133
Se	11.50807895	1.89744507	0.97193070
W	8.22000207	3.79587990	2.66037022
Se	9.86400080	4.74478796	4.34884690
Se	9.86399583	4.74493448	0.97202646
W	6.57586077	6.64331264	2.66038177
Se	8.21978296	7.59213619	4.34898694
Se	8.21990552	7.59233566	0.97211720
W	4.93153639	9.49072881	2.66047182
Se	6.57547390	10.43962704	4.34901118
Se	6.57564430	10.43968259	0.97220565
W	3.28717882	12.33818784	2.66041503
Se	4.93116137	13.28710874	4.34887461
Se	4.93137479	13.28702101	0.97212997
W	13.15210015	0.94826535	2.66043277
Se	14.79609943	1.89709599	4.34894938
Se	14.79625461	1.89706133	0.97208051
W	11.50801897	3.79566042	2.66036714
Se	13.15209907	4.74446918	4.34880422
Se	13.15218939	4.74449336	0.97202080
W	9.86387056	6.64308541	2.66051790
Se	11.50799409	7.59186560	4.34892027
Se	11.50792355	7.59194551	0.97209282
W	8.21960146	9.49044987	2.66064845
Se	9.86373742	10.43925468	4.34901918
Se	9.86364872	10.43930678	0.97223415
W	6.57534174	12.33786662	2.66063716
Se	8.21945852	13.28673690	4.34903015
Se	8.21945650	13.28675077	0.97233958

K_POINTS automatic
4 4 1 0 0 0