# 
# This is the geometry file that corresponds to the current relaxation step.
# If you do not want this file to be written, set the "write_restart_geometry" flag to .false.
#  aims_uuid : EB3E7A78-D963-4CAF-A6DE-722270F1D3D8                                
# 
lattice_vector     15.90000000      0.00000000      0.00000000
lattice_vector     -7.95000000     13.76980392      0.00000000
lattice_vector      0.00000000      0.00000000    100.00000000
atom      -0.00009008      0.91781132      2.59916208 W
atom       1.59080138      1.83643310      4.16821742 S
atom       1.59007766      1.83602496      1.02875624 S
atom      -1.59014668      3.67129325      2.60082083 W
atom      -0.00031766      4.58905633      4.17204819 S
atom      -0.00317376      4.59173876      1.02952491 S
atom      -3.17883516      6.42574606      2.60263013 W
atom      -1.59001235      7.34357742      4.17509107 S
atom      -1.59001509      7.34508489      1.03224611 S
atom      -4.76960650      9.18090801      2.60262793 W
atom      -3.18026949     10.09801968      4.17506351 S
atom      -3.17896411     10.09725549      1.03226466 S
atom      -6.36057222     11.93428836      2.60081937 W
atom      -4.77090036     12.85200748      4.17209088 S
atom      -4.77000758     12.84819022      1.02946909 S
atom       3.18249469      0.91499645      2.59769899 W
atom       4.76807517      1.83832515      4.16882007 S
atom       4.76785780      1.82165077      1.01577640 S
atom       1.58861452      3.67560650      2.59770640 W
atom       3.18109632      4.58708604      4.16878053 S
atom       3.16653664      4.59524299      1.01582095 S
atom      -0.00110163      6.42575277      2.60262613 W
atom       1.59353917      7.34186720      4.17073911 S
atom       1.58784627      7.34516541      1.03192214 S
atom      -1.58994909      9.17990550      2.60430120 W
atom       0.00029388     10.09801909      4.17514820 S
atom      -0.00100604     10.09726002      1.03219068 S
atom      -3.18074414     11.93293369      2.60261669 W
atom      -1.59001517     12.85592862      4.17075518 S
atom      -1.59000608     12.84934747      1.03188478 S
atom       6.36001710      0.92130340      2.59684233 W
atom       7.95189972      1.83837291      4.16883374 S
atom       7.95214216      1.82167585      1.01578598 S
atom       4.74117194      3.65529964      2.58397629 W
atom       6.36002813      4.58988394      4.11018562 S
atom       6.35996062      4.58976795      6.05729445 add_S
atom       6.36001645      4.58992770      1.04671712 S
atom       3.18291223      6.42429157      2.59685581 W
atom       4.77305190      7.34436101      4.16881191 S
atom       4.75872293      7.35290852      1.01583350 S
atom       1.58954885      9.18102002      2.60263283 W
atom       3.18058590     10.09855660      4.17215414 S
atom       3.17685109     10.09968055      1.02945324 S
atom       0.00062915     11.93288624      2.60262622 W
atom       1.59090082     12.85195343      4.17205869 S
atom       1.59000741     12.84814879      1.02953031 S
atom       9.53744348      0.91494719      2.59771970 W
atom      11.12918905      1.83646606      4.16813388 S
atom      11.12990450      1.83605508      1.02888121 S
atom       7.97884840      3.65529026      2.58397460 W
atom       9.53885904      4.58706322      4.16887963 S
atom       9.55345062      4.59522536      1.01576567 S
atom       6.36005135      6.45917667      2.58399953 W
atom       7.94703301      7.34432822      4.16883392 S
atom       7.96136617      7.35288077      1.01582384 S
atom       4.76602380      9.17925031      2.59773278 W
atom       6.35997417     10.09693554      4.16822007 S
atom       6.35997307     10.09775345      1.02880728 S
atom       3.18059173     11.93409925      2.60082877 W
atom       4.77080013     12.85227059      4.17086711 S
atom       4.76979993     12.85168850      1.02870020 S
atom      12.72023791      0.91792461      2.59917223 W
atom      14.31008222      1.83505341      4.17087991 S
atom      14.31007372      1.83620683      1.02867049 S
atom      11.13135221      3.67579178      2.59772552 W
atom      12.72033172      4.58906745      4.17214600 S
atom      12.72316612      4.59175002      1.02944699 S
atom       9.53723268      6.42418231      2.59686366 W
atom      11.12645820      7.34185797      4.17078256 S
atom      11.13214580      7.34513656      1.03188732 S
atom       7.95376924      9.17917309      2.59773148 W
atom       9.53939307     10.09858211      4.17202822 S
atom       9.54312842     10.09969336      1.02956091 S
atom       6.36006367     11.93402186      2.59917625 W
atom       7.94916099     12.85228487      4.17094169 S
atom       7.95014890     12.85170043      1.02860653 S
# 
# What follows is the current estimated Hessian matrix constructed by the BFGS algorithm.
# This is NOT the true Hessian matrix of the system.
# If you do not want this information here, switch it off using the "hessian_to_restart_geometry" keyword.
# 
trust_radius             0.0020966364
hessian_file
