# 
# This is the geometry file that corresponds to the current relaxation step.
# If you do not want this file to be written, set the "write_restart_geometry" flag to .false.
#  aims_uuid : D634192D-8AC5-4803-AD7A-9F8E9018BBCF                                
# 
  set_vacuum_level        52.256270
lattice_vector     15.76960250      0.00000000      0.00000000
lattice_vector     -7.88732950     13.65525595      0.00000000
lattice_vector      0.00000000      0.00000000     99.30554027
atom       0.02161512      0.92905060      2.60746130 Mo
atom       1.60504308      1.83492054      4.17058608 S
atom       1.59891467      1.82581309      1.04292730 S
atom      -1.53706038      3.67615969      2.60530602 Mo
atom       0.05231517      4.58642953      4.17402288 S
atom       0.05236455      4.59835152      1.04536491 S
atom      -3.13648108      6.39794085      2.59738625 Mo
atom      -1.57784219      7.31796883      4.16748246 S
atom      -1.55112543      7.31243288      1.04014299 S
atom      -4.70234199      9.13351245      2.59957552 Mo
atom      -3.13064982     10.04422563      4.17306321 S
atom      -3.13069082     10.04431031      1.02773161 S
atom      -6.27802383     11.86098190      2.60044854 Mo
atom      -4.70403844     12.76341644      4.17528622 S
atom      -4.70231041     12.76856642      1.02983877 S
atom       3.18337396      0.92228679      2.60616714 Mo
atom       4.77068631      1.81779656      4.17112262 S
atom       4.75791384      1.84375443      1.04430485 S
atom       1.63772234      3.66191376      2.59387887 Mo
atom       3.21066639      4.51711032      4.19511661 S
atom       3.15255822      4.55449390      1.05709032 S
atom       0.04045039      6.43100221      2.62922707 Mo
atom       1.55935924      7.30271092      4.16616098 S
atom       1.58847809      7.35459863      1.03386079 S
atom      -1.56134469      9.13842190      2.60034740 Mo
atom       0.02503990     10.04274060      4.16051738 S
atom       0.00673183     10.06333420      1.03319967 S
atom      -3.12811072     11.86073952      2.60127134 Mo
atom      -1.55141684     12.77090313      4.17387372 S
atom      -1.55195077     12.77094962      1.02841048 S
atom       6.34485471      0.92900794      2.59881653 Mo
atom       7.91302378      1.85331864      4.16868466 S
atom       7.91426000      1.85351999      1.02992091 S
atom       4.72452278      3.66329976      2.63149244 Mo
atom       6.31655223      4.60390821      4.16436980 S
atom       6.30536429      4.58485808      1.03705794 S
atom       4.76634012      7.34951703      4.14459380 S
atom       4.82695916      7.31745924      1.00640963 S
atom       1.58429048      9.10548931      2.57129395 Mo
atom       3.17708226     10.01174994      4.15544893 S
atom       3.18762518     10.01781563      1.02678250 S
atom       0.02393980     11.87304485      2.60342498 Mo
atom       1.61027929     12.77102469      4.16973283 S
atom       1.60508678     12.77127583      1.03076290 S
atom       9.49261348      0.93979903      2.60007725 Mo
atom      11.06725542      1.84830005      4.17117386 S
atom      11.06778115      1.84925612      1.02975615 S
atom       7.90066827      3.67674929      2.60059460 Mo
atom       9.48637462      4.57691091      4.17111637 S
atom       9.48571887      4.57804976      1.03236759 S
atom       6.32378636      6.43381228      2.57003201 Mo
atom       7.91631076      7.31504517      4.15687134 S
atom       7.94472388      7.31677489      1.03003257 S
atom       4.78105540      9.10738844      2.60718013 Mo
atom       6.35162914     10.05940862      4.15811162 S
atom       6.34676841     10.04942737      1.03044628 S
atom       3.18082462     11.84933340      2.59555076 Mo
atom       4.75437808     12.76746417      4.16530345 S
atom       4.75386788     12.77447622      1.02650992 S
atom      12.64268313      0.93955160      2.60045062 Mo
atom      14.21821419      1.85132002      4.17439671 S
atom      14.22456846      1.85432547      1.03560182 S
atom      11.06693861      3.66718135      2.60085139 Mo
atom      12.64614133      4.57955175      4.17011346 S
atom      12.64887192      4.57510642      1.03112646 S
atom       9.50190687      6.39830509      2.60219552 Mo
atom      11.06750059      7.31346250      4.17248130 S
atom      11.06759573      7.31296489      1.02701039 S
atom       7.92648879      9.13925792      2.59487854 Mo
atom       9.49386193     10.04262301      4.17108575 S
atom       9.49730382     10.04664861      1.02563896 S
atom       6.33924356     11.87367495      2.59349061 Mo
atom       7.91229937     12.76702419      4.17326026 S
atom       7.91708877     12.77535019      1.02766921 S
# 
# What follows is the current estimated Hessian matrix constructed by the BFGS algorithm.
# This is NOT the true Hessian matrix of the system.
# If you do not want this information here, switch it off using the "hessian_to_restart_geometry" keyword.
# 
trust_radius             0.0016261552
hessian_file
