#
# Model[1]: Jmol 14.6.4_2016.11.05  2016-11-10 03:30
# Generated by Open Babel 3.0.0
#
lattice_vector     16.41708800      0.00000000      0.00000000
lattice_vector     -8.21125790     14.21583190      0.00000000
lattice_vector      0.00000000      0.00000000     99.89650741
atom                   0.04110        1.01840        2.66500  Mo
atom                   1.68560        1.97120        4.33760  Se
atom                   1.68560        1.97120        0.99240  Se
atom                  -1.58250        3.87860        2.66500  Mo
atom                   0.06420        4.82930        4.34640  Se
atom                   0.06420        4.82930        0.98360  Se
atom                  -3.24880        6.71390        2.66500  Mo
atom                  -1.60150        7.66170        4.33760  Se
atom                  -1.60150        7.66170        0.99240  Se
atom                  -4.87670        9.55890        2.66500  Mo
atom                  -3.23620       10.50760        4.34400  Se
atom                  -3.23620       10.50760        0.98600  Se
atom                  -6.51910       12.40250        2.66500  Mo
atom                  -4.87730       13.34880        4.34400  Se
atom                  -4.87730       13.34880        0.98600  Se
atom                   3.33360        1.02540        2.66500  Mo
atom                   4.98140        1.97110        4.33760  Se
atom                   4.98140        1.97110        0.99240  Se
atom                   1.70950        3.88030        2.66500  Mo
atom                   3.56363        5.40237        4.74524  Se
atom                   3.48173        5.29961        1.50060  Se
atom                   0.06410        6.72840        2.66500  Mo
atom                   1.56931        7.74362        4.44960  Se
atom                   1.58971        7.72302        1.14268  Se
atom                  -1.59710        9.56150        2.66500  Mo
atom                   0.04580       10.51540        4.33770  Se
atom                   0.04580       10.51540        0.99230  Se
atom                  -3.23520       12.40250        2.66500  Mo
atom                  -1.59710       13.34820        4.35010  Se
atom                  -1.59710       13.34820        0.97990  Se
atom                   6.62610        1.01840        2.66500  Mo
atom                   8.25960        1.97940        4.34390  Se
atom                   8.25960        1.97940        0.98610  Se
atom                   4.95680        3.88000        2.66500  Mo
atom                   6.60170        4.82900        4.34650  Se
atom                   6.60170        4.82900        0.98350  Se
atom                   4.42126        7.16953        4.35245  Se
atom                   4.38019        7.19007        1.00465  Se
atom                   1.68710        9.54000        2.66500  Mo
atom                   3.33160       10.48980        4.34650  Se
atom                   3.33160       10.48980        0.98350  Se
atom                   0.04250       12.41590        2.66500  Mo
atom                   1.69170       13.34990        4.34390  Se
atom                   1.69170       13.34990        0.98610  Se
atom                   9.90400        1.03190        2.66500  Mo
atom                  11.54200        1.97740        4.34690  Se
atom                  11.54200        1.97740        0.98310  Se
atom                   8.24840        3.87850        2.66500  Mo
atom                   9.89850        4.81870        4.34390  Se
atom                   9.89850        4.81870        0.98610  Se
atom                   6.60070        6.72810        2.66500  Mo
atom                   8.26610        7.66150        4.33770  Se
atom                   8.26610        7.66150        0.99240  Se
atom                   4.97630        9.53980        2.66500  Mo
atom                   6.61760       10.51520        4.33760  Se
atom                   6.61760       10.51520        0.99240  Se
atom                   3.33130       12.39110        2.66500  Mo
atom                   4.97070       13.34990        4.34390  Se
atom                   4.97070       13.34990        0.98610  Se
atom                  13.18000        1.03190        2.66500  Mo
atom                  14.82440        1.97940        4.34390  Se
atom                  14.82440        1.97940        0.98610  Se
atom                  11.54150        3.86860        2.66500  Mo
atom                  13.18430        4.81880        4.34390  Se
atom                  13.18430        4.81880        0.98610  Se
atom                   9.91360        6.71380        2.66500  Mo
atom                  11.54090        7.66740        4.35010  Se
atom                  11.54090        7.66740        0.97990  Se
atom                   8.26080        9.56130        2.66500  Mo
atom                   9.89970       10.50750        4.34400  Se
atom                   9.89970       10.50750        0.98600  Se
atom                   6.62000       12.41590        2.66500  Mo
atom                   8.25950       13.34820        4.35010  Se
atom                   8.25950       13.34820        0.97990  Se
