# 
# This is the geometry file that corresponds to the current relaxation step.
# If you do not want this file to be written, set the "write_restart_geometry" flag to .false.
#  aims_uuid : BDCCA4AA-DC56-4028-A254-9FC542887807                                
# 
  set_vacuum_level        52.830000
lattice_vector      3.25913764     -0.00223541     -0.00304869
lattice_vector     -1.62805662      2.82358189      0.00132446
lattice_vector     -0.00228858      0.00318424    100.31494303
atom       0.00038548      0.94093069      2.66454155 W
atom       1.63212329      1.88069576      4.32970690 Se
atom       1.62896684      1.88049885      0.99616987 Se
# 
# What follows is the current estimated Hessian matrix constructed by the BFGS algorithm.
# This is NOT the true Hessian matrix of the system.
# If you do not want this information here, switch it off using the "hessian_to_restart_geometry" keyword.
