# 
# This is the geometry file that corresponds to the current relaxation step.
# If you do not want this file to be written, set the "write_restart_geometry" flag to .false.
#  aims_uuid : 23C1C520-B9FA-4E47-A117-ADEC030655C8                                
# 
  set_vacuum_level        52.912182
lattice_vector     16.29568820      0.00000000      0.00000000
lattice_vector     -8.14028310     14.11790945      0.00000000
lattice_vector      0.00000000      0.00000000    100.31494303
atom      -0.02071102      0.94672255      2.60879172 W
atom       1.62743836      1.92251151      4.26792854 Se
atom       1.59632021      1.86562329      0.87116576 Se
atom      -1.64639208      3.76948665      2.61795593 W
atom       0.01869548      4.70085514      4.29933148 Se
atom      -0.04166676      4.72932674      0.89255348 Se
atom      -3.27808271      6.59177394      2.64833232 W
atom      -1.65040222      7.52913664      4.36581833 Se
atom      -1.66513908      7.54841177      0.94742250 Se
atom      -4.89402907      9.42184366      2.64870663 W
atom      -3.27581703     10.37737211      4.34750915 Se
atom      -3.25997757     10.35285047      0.94912408 Se
atom      -6.52249175     12.25061369      2.63278588 W
atom      -4.89349931     13.21824927      4.31356739 Se
atom      -4.89571702     13.16354243      0.91245689 Se
atom       3.24075831      0.95406354      2.57416151 W
atom       4.84836141      1.94287013      4.25681877 Se
atom       4.88797289      1.86457227      0.87432955 Se
atom       1.60380132      3.77289398      2.53651114 W
atom       3.21050941      5.01160537      3.98237801 Se
atom       3.23535240      4.58738936      0.69430071 Se
atom      -0.05158091      6.59273351      2.63604256 W
atom       1.56394207      7.54977300      4.43455741 Se
atom       1.72944471      7.38662400      1.14280880 Se
atom      -1.64457984      9.41428641      2.66771684 W
atom      -0.05074061     10.38689883      4.38448769 Se
atom       0.02371277     10.31916924      0.99144854 Se
atom      -3.26675019     12.24804063      2.63078510 W
atom      -1.65398664     13.20663369      4.33412883 Se
atom      -1.62611937     13.16495175      0.92928004 Se
atom       6.50338395      0.94670991      2.61114858 W
atom       8.11436018      1.89621493      4.32281728 Se
atom       8.14029051      1.88793816      0.92596566 Se
atom       4.84228571      3.79539832      2.51180296 W
atom       6.43992324      4.71274051      4.29575400 Se
atom       6.51284508      4.76099765      0.90745456 Se
atom       4.99765082      7.58731602      4.48575764 Se
atom       4.77128035      7.44688804      1.17109035 Se
atom       1.59794339      9.37775171      2.76169722 W
atom       3.24961115     10.35335624      4.42617860 Se
atom       3.25663503     10.27018854      1.05299558 Se
atom      -0.01461645     12.24245514      2.65401005 W
atom       1.60787008     13.18890368      4.35732688 Se
atom       1.63505087     13.15335563      0.96252678 Se
atom       9.75697402      0.94155466      2.64052795 W
atom      11.38656447      1.88531509      4.33904344 Se
atom      11.38630364      1.88074054      0.94211063 Se
atom       8.11677044      3.77826845      2.62165076 W
atom       9.74693484      4.70345456      4.33724309 Se
atom       9.76366137      4.71991754      0.94058641 Se
atom       6.54190954      6.62716170      2.67370137 W
atom       8.17562424      7.54182839      4.37800997 Se
atom       8.15537949      7.55755248      0.96351928 Se
atom       4.92283591      9.40501453      2.77141316 W
atom       6.56767989     10.40654654      4.39952239 Se
atom       6.49245046     10.33504183      0.99702185 Se
atom       3.24785392     12.21591066      2.68782203 W
atom       4.88663378     13.18989570      4.35941915 Se
atom       4.86383500     13.15095338      0.96450907 Se
atom      13.01600335      0.93904289      2.64048884 W
atom      14.65887659      1.89058009      4.32125560 Se
atom      14.63073300      1.87843109      0.92247922 Se
atom      11.38583569      3.76802607      2.64052526 W
atom      13.02623288      4.70034910      4.33637067 Se
atom      13.00671554      4.71637509      0.93749776 Se
atom       9.77875704      6.59689126      2.65160248 W
atom      11.40246427      7.53913391      4.35242672 Se
atom      11.39691164      7.54049900      0.94698120 Se
atom       8.15492381      9.42647786      2.67894171 W
atom       9.79170716     10.38421439      4.35308713 Se
atom       9.76603884     10.35514358      0.95226769 Se
atom       6.51964592     12.25015068      2.65946564 W
atom       8.15942862     13.21181868      4.33625746 Se
atom       8.12957457     13.16573026      0.93021034 Se
# 
# What follows is the current estimated Hessian matrix constructed by the BFGS algorithm.
# This is NOT the true Hessian matrix of the system.
# If you do not want this information here, switch it off using the "hessian_to_restart_geometry" keyword.
# 
trust_radius             0.0005929994
hessian_file
