# 
# This is the geometry file that corresponds to the current relaxation step.
# If you do not want this file to be written, set the "write_restart_geometry" flag to .false.
#  aims_uuid : D0321737-08D9-4C01-A0A0-9B7CA9BF7FA1                                
# 
lattice_vector     16.55000000      0.00000000      0.00000000
lattice_vector     -8.27500000     14.33272043      0.00000000
lattice_vector      0.00000000      0.00000000    100.33000000
atom      -0.00898013      0.93883058      2.66500000 W
atom       1.64835046      1.88311344      4.34554617 Se
atom       1.64835046      1.88311344      0.98445383 Se
atom      -1.64548595      3.82754982      2.66500000 W
atom       0.02406218      4.79148023      4.33190796 Se
atom       0.02406218      4.79148023      0.99809204 Se
atom      -3.32888551      6.68915719      2.66500000 W
atom      -1.68248971      7.65233372      4.34554590 Se
atom      -1.68248971      7.65233372      0.98445410 Se
atom      -4.96500052      9.55712076      2.66500000 W
atom      -3.31637019     10.51436105      4.34896677 Se
atom      -3.31637019     10.51436105      0.98103323 Se
atom      -6.61827853     12.42073685      2.66500000 W
atom      -4.96500554     13.36983069      4.34897159 Se
atom      -4.96500554     13.36983069      0.98102841 Se
atom       3.31000230      0.93887607      2.66500000 W
atom       4.97165661      1.88312215      4.34553218 Se
atom       4.97165661      1.88312215      0.98446782 Se
atom       1.68281385      3.79281277      2.66500000 W
atom       3.30999930      4.74555966      4.33091024 Se
atom       3.30999930      4.74555966      0.99908976 Se
atom      -0.01139329      6.72737437      2.66500000 W
atom       1.62727738      7.66015801      4.33093071 Se
atom       1.62727738      7.66015801      0.99906929 Se
atom      -1.66939534      9.56348692      2.66500000 W
atom      -0.02084765     10.53038752      4.34556469 Se
atom      -0.02084765     10.53038752      0.98443531 Se
atom      -3.31169860     12.42068788      2.66500000 W
atom      -1.66027460     13.37415592      4.35305775 Se
atom      -1.66027460     13.37415592      0.97694225 Se
atom       6.62897340      0.93885909      2.66500000 W
atom       8.27451430      1.91347948      4.34568538 Se
atom       8.27451430      1.91347948      0.98431462 Se
atom       4.93718078      3.79281235      2.66500000 W
atom       6.59594684      4.79146198      4.33191084 Se
atom       6.59594684      4.79146198      0.99808916 Se
atom       4.99274410      7.66015065      4.33094442 Se
atom       4.99274410      7.66015065      0.99905558 Se
atom       1.61574053      9.54569602      2.66500000 W
atom       3.30998521     10.48287465      4.33193597 Se
atom       3.30998521     10.48287465      0.99806403 Se
atom      -0.00996434     12.43776737      2.66500000 W
atom       1.65687822     13.37554773      4.34567964 Se
atom       1.65687822     13.37554773      0.98432036 Se
atom       9.93006905      0.95555670      2.66500000 W
atom      11.58499771      1.91101871      4.34548254 Se
atom      11.58499771      1.91101871      0.98451746 Se
atom       8.26548479      3.82754202      2.66500000 W
atom       9.92762581      4.77675142      4.34568044 Se
atom       9.92762581      4.77675142      0.98431956 Se
atom       6.63140056      6.72735262      2.66500000 W
atom       8.30249191      7.65230986      4.34554122 Se
atom       8.30249191      7.65230986      0.98445878 Se
atom       5.00422440      9.54570152      2.66500000 W
atom       6.64085044     10.53035748      4.34555964 Se
atom       6.64085044     10.53035748      0.98444036 Se
atom       3.30999994     12.41066627      2.66500000 W
atom       4.96311184     13.37554371      4.34566894 Se
atom       4.96311184     13.37554371      0.98433106 Se
atom      13.23990095      0.95556618      2.66500000 W
atom      14.89548268      1.91347095      4.34568146 Se
atom      14.89548268      1.91347095      0.98431854 Se
atom      11.58500031      3.82195330      2.66500000 W
atom      13.24235894      4.77676434      4.34567987 Se
atom      13.24235894      4.77676434      0.98432013 Se
atom       9.94891312      6.68917056      2.66500000 W
atom      11.58501434      7.65020320      4.35304838 Se
atom      11.58501434      7.65020320      0.97695162 Se
atom       8.28938847      9.56347241      2.66500000 W
atom       9.93639945     10.51433670      4.34895722 Se
atom       9.93639945     10.51433670      0.98104278 Se
atom       6.62993465     12.43776316      2.66500000 W
atom       8.28026753     13.37414391      4.35306126 Se
atom       8.28026753     13.37414391      0.97693874 Se
# 
# What follows is the current estimated Hessian matrix constructed by the BFGS algorithm.
# This is NOT the true Hessian matrix of the system.
