&CONTROL
calculation = "scf"
pseudo_dir = "" ! insert pseudopotential directory
prefix = "unfold"
disk_io = "low"
/

&SYSTEM
ibrav = 0
nat = 74
ntyp = 2
ecutwfc = 30
noncolin = .true.
lspinorb = .true.
/

&ELECTRONS
/

ATOMIC_SPECIES
Se 1. ! add Se pseudo name
W 1. ! add W pseudo name

CELL_PARAMETERS angstrom
16.55000000	0.00000000	0.00000000
-8.27500000	14.33272043	0.00000000
0.00000000	0.00000000	100.33000000

ATOMIC_POSITIONS angstrom
W	-0.00898013	0.93883058	2.66500000
Se	1.64835046	1.88311344	4.34554617
Se	1.64835046	1.88311344	0.98445383
W	-1.64548595	3.82754982	2.66500000
Se	0.02406218	4.79148023	4.33190796
Se	0.02406218	4.79148023	0.99809204
W	-3.32888551	6.68915719	2.66500000
Se	-1.68248971	7.65233372	4.34554590
Se	-1.68248971	7.65233372	0.98445410
W	-4.96500052	9.55712076	2.66500000
Se	-3.31637019	10.51436105	4.34896677
Se	-3.31637019	10.51436105	0.98103323
W	-6.61827853	12.42073685	2.66500000
Se	-4.96500554	13.36983069	4.34897159
Se	-4.96500554	13.36983069	0.98102841
W	3.31000230	0.93887607	2.66500000
Se	4.97165661	1.88312215	4.34553218
Se	4.97165661	1.88312215	0.98446782
W	1.68281385	3.79281277	2.66500000
Se	3.30999930	4.74555966	4.33091024
Se	3.30999930	4.74555966	0.99908976
W	-0.01139329	6.72737437	2.66500000
Se	1.62727738	7.66015801	4.33093071
Se	1.62727738	7.66015801	0.99906929
W	-1.66939534	9.56348692	2.66500000
Se	-0.02084765	10.53038752	4.34556469
Se	-0.02084765	10.53038752	0.98443531
W	-3.31169860	12.42068788	2.66500000
Se	-1.66027460	13.37415592	4.35305775
Se	-1.66027460	13.37415592	0.97694225
W	6.62897340	0.93885909	2.66500000
Se	8.27451430	1.91347948	4.34568538
Se	8.27451430	1.91347948	0.98431462
W	4.93718078	3.79281235	2.66500000
Se	6.59594684	4.79146198	4.33191084
Se	6.59594684	4.79146198	0.99808916
Se	4.99274410	7.66015065	4.33094442
Se	4.99274410	7.66015065	0.99905558
W	1.61574053	9.54569602	2.66500000
Se	3.30998521	10.48287465	4.33193597
Se	3.30998521	10.48287465	0.99806403
W	-0.00996434	12.43776737	2.66500000
Se	1.65687822	13.37554773	4.34567964
Se	1.65687822	13.37554773	0.98432036
W	9.93006905	0.95555670	2.66500000
Se	11.58499771	1.91101871	4.34548254
Se	11.58499771	1.91101871	0.98451746
W	8.26548479	3.82754202	2.66500000
Se	9.92762581	4.77675142	4.34568044
Se	9.92762581	4.77675142	0.98431956
W	6.63140056	6.72735262	2.66500000
Se	8.30249191	7.65230986	4.34554122
Se	8.30249191	7.65230986	0.98445878
W	5.00422440	9.54570152	2.66500000
Se	6.64085044	10.53035748	4.34555964
Se	6.64085044	10.53035748	0.98444036
W	3.30999994	12.41066627	2.66500000
Se	4.96311184	13.37554371	4.34566894
Se	4.96311184	13.37554371	0.98433106
W	13.23990095	0.95556618	2.66500000
Se	14.89548268	1.91347095	4.34568146
Se	14.89548268	1.91347095	0.98431854
W	11.58500031	3.82195330	2.66500000
Se	13.24235894	4.77676434	4.34567987
Se	13.24235894	4.77676434	0.98432013
W	9.94891312	6.68917056	2.66500000
Se	11.58501434	7.65020320	4.35304838
Se	11.58501434	7.65020320	0.97695162
W	8.28938847	9.56347241	2.66500000
Se	9.93639945	10.51433670	4.34895722
Se	9.93639945	10.51433670	0.98104278
W	6.62993465	12.43776316	2.66500000
Se	8.28026753	13.37414391	4.35306126
Se	8.28026753	13.37414391	0.97693874

K_POINTS automatic
4 4 1 0 0 0