# 
# This is the geometry file that corresponds to the current relaxation step.
# If you do not want this file to be written, set the "write_restart_geometry" flag to .false.
#  aims_uuid : B31AA06F-60D8-4C5F-A93F-16C21D7A82E7                                
# 
  set_vacuum_level        52.607417
lattice_vector     16.41708800      0.00000000      0.00000000
lattice_vector     -8.21125790     14.21583190      0.00000000
lattice_vector      0.00000000      0.00000000     99.89650741
atom       0.05987561      1.02602570      2.68794025 Mo
atom       1.72747297      2.05035123      4.30798097 Se
atom       1.65460287      1.93091065      0.91943616 Se
atom      -1.56535615      3.88859663      2.69932145 Mo
atom       0.23309477      4.92709464      4.29251020 Se
atom      -0.01183115      4.78553253      0.90037528 Se
atom      -3.23279578      6.72653349      2.68789609 Mo
atom      -1.51204880      7.65848697      4.30806407 Se
atom      -1.65188169      7.65502877      0.91932186 Se
atom      -4.87614359      9.55061750      2.66523332 Mo
atom      -3.20798953     10.49188034      4.32168446 Se
atom      -3.24053341     10.51069688      0.98573054 Se
atom      -6.52613920     12.40712172      2.66527318 Mo
atom      -4.87672770     13.38106201      4.32166447 Se
atom      -4.87674637     13.34352056      0.98582172 Se
atom       3.33416108      1.06421283      2.63014606 Mo
atom       4.94078412      2.05007429      4.30804105 Se
atom       5.01356842      1.93069830      0.91943215 Se
atom       1.66072763      3.82613596      2.51718583 Mo
atom       3.33382561      4.97627441      1.22924858 Se
atom      -0.00711358      6.71375238      2.51715928 Mo
atom       1.82570269      7.58637797      1.22899397 Se
atom      -1.56331207      9.54258218      2.63011486 Mo
atom       0.09384383     10.44051902      4.30807398 Se
atom       0.02694811     10.56335471      0.91938780 Se
atom      -3.22722864     12.40714640      2.66526036 Mo
atom      -1.60227910     13.34518446      4.36612881 Se
atom      -1.58171815     13.35704840      0.99951130 Se
atom       6.60830547      1.02590855      2.68795022 Mo
atom       8.22221220      1.99704456      4.38875393 Se
atom       8.28445253      1.97850303      1.04548578 Se
atom       5.00675507      3.82577140      2.51721837 Mo
atom       6.43391503      4.92639080      4.29277231 Se
atom       6.67891468      4.78503858      0.90037857 Se
atom       4.84021148      7.58595409      1.22931473 Se
atom       1.66464118      9.60983364      2.51721713 Mo
atom       3.33187198     10.29542508      4.29261970 Se
atom       3.33200792     10.57838743      0.90051334 Se
atom       0.04018077     12.39667793      2.68794737 Mo
atom       1.68830445     13.30867111      4.38876959 Se
atom       1.70340671     13.37179671      1.04550318 Se
atom       9.89855937      1.02867565      2.74511315 Mo
atom      11.54249173      1.97775522      4.42983503 Se
atom      11.54249888      1.97769752      1.07564527 Se
atom       8.23246566      3.88832808      2.69939895 Mo
atom       9.86505098      4.84311545      4.38873195 Se
atom       9.91220136      4.79849744      1.04546057 Se
atom       6.67322853      6.71277131      2.51728161 Mo
atom       8.17783281      7.65805375      4.30812587 Se
atom       8.31757172      7.65473377      0.91945678 Se
atom       4.99936363      9.60993008      2.51730060 Mo
atom       6.57042107     10.44034146      4.30810138 Se
atom       6.63735066     10.56317634      0.91950893 Se
atom       3.33169649     12.37230439      2.69944434 Mo
atom       4.97503898     13.30866542      4.38876599 Se
atom       4.95999981     13.37179055      1.04553173 Se
atom      13.18655201      1.02873760      2.74511607 Mo
atom      14.86281244      1.99728350      4.38868485 Se
atom      14.80057373      1.97862951      1.04548782 Se
atom      11.54204360      3.87590459      2.74507795 Mo
atom      13.21892320      4.84325621      4.38866577 Se
atom      13.17175192      4.79858299      1.04543382 Se
atom       9.89874524      6.72635495      2.68794090 Mo
atom      11.54144072      7.67436174      4.36607144 Se
atom      11.54138592      7.65063708      0.99947841 Se
atom       8.22794815      9.54232196      2.63022326 Mo
atom       9.87257481     10.49179474      4.32169594 Se
atom       9.90499405     10.51057843      0.98582048 Se
atom       6.62338333     12.39668181      2.68799090 Mo
atom       8.26582748     13.34525704      4.36611328 Se
atom       8.24523046     13.35706667      0.99955894 Se
# 
# What follows is the current estimated Hessian matrix constructed by the BFGS algorithm.
# This is NOT the true Hessian matrix of the system.
# If you do not want this information here, switch it off using the "hessian_to_restart_geometry" keyword.
# 
trust_radius             0.0004942455
hessian_file
