#
lattice_vector  15.83905019 -0.00000000 0.00000000
lattice_vector  -7.92011750 13.71653974 0.00000000
lattice_vector  -0.00000000 -0.00000000 99.87375975
#
atom_frac 0.03237536 0.06577897 0.02600144 W
atom_frac 0.16526660 0.13121661 0.04175031 S
atom_frac 0.16531816 0.13126676 0.01026074 S
atom_frac 0.03448877 0.26724738 0.02600616 W
atom_frac 0.16923909 0.33460206 0.04162027 S
atom_frac 0.16928803 0.33465347 0.01040068 S
atom_frac 0.03236916 0.46659562 0.02601046 W
atom_frac 0.16525937 0.53401407 0.04175961 S
atom_frac 0.16530988 0.53406433 0.01026963 S
atom_frac 0.03346812 0.66694054 0.02601536 W
atom_frac 0.16631782 0.73361965 0.04184514 S
atom_frac 0.16636506 0.73367428 0.01019319 S
atom_frac 0.03346735 0.86653137 0.02602030 W
atom_frac 0.16631765 0.93265876 0.04185003 S
atom_frac 0.16636479 0.93270760 0.01019840 S
atom_frac 0.23256698 0.06513190 0.02600605 W
atom_frac 0.36592078 0.13120150 0.04175565 S
atom_frac 0.36597600 0.13124845 0.01026545 S
atom_frac 0.23513876 0.26497103 0.02600960 W
atom_frac 0.36463248 0.32927612 0.04174789 S
atom_frac 0.36468228 0.32932149 0.01027931 S
atom_frac 0.23512863 0.47015595 0.02601466 W
atom_frac 0.36462242 0.53529882 0.04175387 S
atom_frac 0.36467102 0.53535192 0.01028485 S
atom_frac 0.23256526 0.66742184 0.02601871 W
atom_frac 0.36591251 0.73466333 0.04176884 S
atom_frac 0.36597421 0.73472200 0.01027795 S
atom_frac 0.23305507 0.86652122 0.02602381 W
atom_frac 0.36628883 0.93311467 0.04184667 S
atom_frac 0.36634424 0.93317119 0.01021019 S
atom_frac 0.43339309 0.06575355 0.02601107 W
atom_frac 0.56674920 0.13361775 0.04178961 S
atom_frac 0.56680173 0.13366953 0.01024163 S
atom_frac 0.42982877 0.26495148 0.02601441 W
atom_frac 0.56532557 0.33456384 0.04162987 S
atom_frac 0.56538480 0.33462465 0.01040989 S
atom_frac 0.57064128 0.53527472 0.04176130 S
atom_frac 0.57066547 0.53531123 0.01029311 S
atom_frac 0.42981886 0.66484418 0.02602415 W
atom_frac 0.56531633 0.73067550 0.04163906 S
atom_frac 0.56537343 0.73072759 0.01041948 S
atom_frac 0.43339108 0.86760531 0.02602841 W
atom_frac 0.56674664 0.93304954 0.04180744 S
atom_frac 0.56680169 0.93309907 0.01025945 S
atom_frac 0.63330557 0.06662397 0.02601555 W
atom_frac 0.76662294 0.13326209 0.04178960 S
atom_frac 0.76667243 0.13331138 0.01024942 S
atom_frac 0.63273955 0.26720573 0.02601960 W
atom_frac 0.76627499 0.33313501 0.04179786 S
atom_frac 0.76632591 0.33319104 0.01024965 S
atom_frac 0.63500347 0.47012197 0.02602564 W
atom_frac 0.76870743 0.53396832 0.04177405 S
atom_frac 0.76875310 0.53402084 0.01028435 S
atom_frac 0.63499187 0.66481640 0.02602996 W
atom_frac 0.76870029 0.73463382 0.04177814 S
atom_frac 0.76874621 0.73468038 0.01028890 S
atom_frac 0.63273598 0.86547468 0.02603366 W
atom_frac 0.76627399 0.93303729 0.04181159 S
atom_frac 0.76632329 0.93308758 0.01026376 S
atom_frac 0.83331531 0.06661486 0.02601973 W
atom_frac 0.96684181 0.13360002 0.04179773 S
atom_frac 0.96689039 0.13365260 0.01024977 S
atom_frac 0.83331390 0.26662726 0.02602352 W
atom_frac 0.96683690 0.33312865 0.04180201 S
atom_frac 0.96688988 0.33318175 0.01025415 S
atom_frac 0.83419675 0.46654448 0.02602853 W
atom_frac 0.96678401 0.53359146 0.04185097 S
atom_frac 0.96683480 0.53364699 0.01021475 S
atom_frac 0.83482883 0.66737749 0.02603330 W
atom_frac 0.96725387 0.73357163 0.04186344 S
atom_frac 0.96730551 0.73362606 0.01021209 S
atom_frac 0.83419554 0.86757653 0.02603747 W
atom_frac 0.96678492 0.93308703 0.04185969 S
atom_frac 0.96683453 0.93313170 0.01022368 S
