# 
# This is the geometry file that corresponds to the current relaxation step.
# If you do not want this file to be written, set the "write_restart_geometry" flag to .false.
#  aims_uuid : 1D6DCA2D-E48F-47F2-AFBB-4395CE210528                                
# 
  set_vacuum_level         0.002315
lattice_vector     15.72847685      0.00000000      0.00000000
lattice_vector     -7.86461685     13.62035640      0.00000000
lattice_vector      0.00000000      0.00000000    103.13570646
atom      -0.00764023      0.89609329     51.56994996 W
atom       1.56867494      1.77883378     53.13798150 S
atom       1.56843401      1.77830191     50.00138792 S
atom      -1.55887314      3.63957825     51.56997125 W
atom       0.03941022      4.56197067     53.11581485 S
atom       0.03907038      4.56226007     50.02388149 S
atom      -3.15941979      6.35455682     51.57018884 W
atom      -1.60707860      7.27812775     53.13864000 S
atom      -1.60693932      7.27827653     50.00201930 S
atom      -4.71880014      9.08384103     51.57019158 W
atom      -3.15641364      9.99361737     53.14453306 S
atom      -3.15622316      9.99345075     49.99594943 S
atom      -6.28801926     11.80146570     51.57010497 W
atom      -4.71888575     12.69984115     53.14428714 S
atom      -4.71887948     12.69947756     49.99571725 S
atom       3.14570640      0.88070170     51.56974320 W
atom       4.72268552      1.77894990     53.13791571 S
atom       4.72291398      1.77818064     50.00128502 S
atom       1.61976864      3.58954543     51.56935479 W
atom       3.14560700      4.47419395     53.13023397 S
atom       3.14565105      4.47168483     50.00649368 S
atom      -0.01298470      6.41711367     51.57027686 W
atom       1.51436073      7.29722718     53.13317304 S
atom       1.51578453      7.29621135     50.00946386 S
atom      -1.59615845      9.09290616     51.57040837 W
atom      -0.03027535     10.00990835     53.13889517 S
atom      -0.02967349     10.00935084     50.00223538 S
atom      -3.14970531     11.80149539     51.57011498 W
atom      -1.57620158     12.71010750     53.14173043 S
atom      -1.57600749     12.70975381     49.99847622 S
atom       6.29898683      0.89609111     51.56990926 W
atom       7.86280068      1.82172086     53.13813517 S
atom       7.86298229      1.82149283     50.00171675 S
atom       4.67149159      3.58951822     51.56905853 W
atom       6.25171002      4.56204050     53.11548163 S
atom       6.25219436      4.56212776     50.02353443 S
atom       4.77616222      7.29694509     53.13245493 S
atom       4.77565968      7.29636571     50.00873033 S
atom       1.51283465      9.05986405     51.57118510 W
atom       3.14548762      9.94238698     53.11690007 S
atom       3.14536923      9.94184529     50.02494014 S
atom      -0.00626664     11.81581535     51.57028818 W
atom       1.57718916     12.70752298     53.13847796 S
atom       1.57736555     12.70719287     50.00210138 S
atom       9.43600723      0.90676394     51.57010268 W
atom      11.00989652      1.81540743     53.13672047 S
atom      11.00990975      1.81532789     50.00342721 S
atom       7.85007478      3.63954815     51.56979961 W
atom       9.43078524      4.53739103     53.13818499 S
atom       9.43099330      4.53751365     50.00178251 S
atom       6.30399412      6.41706763     51.56975264 W
atom       7.89788179      7.27804117     53.13839966 S
atom       7.89812304      7.27829019     50.00178576 S
atom       4.77803953      9.05979931     51.57093715 W
atom       6.32108202     10.00980051     53.13870788 S
atom       6.32055940     10.00940819     50.00208093 S
atom       3.14535412     11.78733196     51.57051224 W
atom       4.71353625     12.70748914     53.13845351 S
atom       4.71332274     12.70720370     50.00208941 S
atom      12.58383178      0.90675843     51.57009877 W
atom      14.15698315      1.82167546     53.13820576 S
atom      14.15684618      1.82158205     50.00178522 S
atom      11.00983595      3.63268649     51.57005012 W
atom      12.58877956      4.53739078     53.13826841 S
atom      12.58872942      4.53753004     50.00185650 S
atom       9.45046216      6.35455531     51.57009660 W
atom      11.00969529      7.26686108     53.14179105 S
atom      11.00979589      7.26693591     49.99852960 S
atom       7.88705790      9.09287383     51.57023840 W
atom       9.44720116      9.99356785     53.14448431 S
atom       9.44714963      9.99347483     49.99587923 S
atom       6.29702334     11.81582237     51.57021981 W
atom       7.86691427     12.71005478     53.14172667 S
atom       7.86676358     12.70979962     49.99846906 S
# 
# What follows is the current estimated Hessian matrix constructed by the BFGS algorithm.
# This is NOT the true Hessian matrix of the system.
# If you do not want this information here, switch it off using the "hessian_to_restart_geometry" keyword.
# 
trust_radius             0.0007501541
hessian_file
