lattice_vector      16.238659     -0.000     -0.00
lattice_vector      -8.11989635    14.06215255     -0.00
lattice_vector      0.0000      0.0000     99.93951163
atom_frac 0.03324784 0.06662447 0.02658308 Mo
atom_frac 0.16664642 0.13332333 0.04321622 Se
atom_frac 0.16667054 0.13333553 0.00995133 Se
atom_frac 0.03330268 0.26660516 0.02660706 Mo
atom_frac 0.16651772 0.33323731 0.04328280 Se
atom_frac 0.16649170 0.33351475 0.00994312 Se
atom_frac 0.03337664 0.46657926 0.02663865 Mo
atom_frac 0.16664778 0.53329511 0.04331400 Se
atom_frac 0.16672038 0.53344123 0.00998915 Se
atom_frac 0.03337532 0.66679771 0.02663871 Mo
atom_frac 0.16664750 0.73335294 0.04331399 Se
atom_frac 0.16671972 0.73327935 0.00998925 Se
atom_frac 0.03330225 0.86669788 0.02660716 Mo
atom_frac 0.16651723 0.93328057 0.04328290 Se
atom_frac 0.16649042 0.93297637 0.00994311 Se
atom_frac 0.23334588 0.06627703 0.02657698 Mo
atom_frac 0.36628022 0.13336577 0.04327686 Se
atom_frac 0.36573994 0.13210023 0.00977078 Se
atom_frac 0.23334730 0.26706946 0.02657702 Mo
atom_frac 0.36628128 0.33291428 0.04327712 Se
atom_frac 0.36574081 0.33364071 0.00977076 Se
atom_frac 0.23320291 0.46658009 0.02663856 Mo
atom_frac 0.36691901 0.53308161 0.04325341 Se
atom_frac 0.36664579 0.53335501 0.01000179 Se
atom_frac 0.23333365 0.66666675 0.02666021 Mo
atom_frac 0.36670610 0.73335305 0.04331393 Se
atom_frac 0.36655958 0.73327955 0.00998916 Se
atom_frac 0.23320202 0.86662347 0.02663861 Mo
atom_frac 0.36691872 0.93383690 0.04325343 Se
atom_frac 0.36664449 0.93328899 0.01000175 Se
atom_frac 0.43366004 0.06732085 0.02657699 Mo
atom_frac 0.56708545 0.13336518 0.04327688 Se
atom_frac 0.56636044 0.13210042 0.00977080 Se
atom_frac 0.42958182 0.26479162 0.02641544 Mo
atom_frac 0.56666516 0.33333112 0.04221301 Se
atom_frac 0.56666149 0.33332871 0.06475341 Se
atom_frac 0.56666641 0.33333232 0.01020823 Se
atom_frac 0.43366144 0.46633843 0.02657716 Mo
atom_frac 0.56708554 0.53371918 0.04327706 Se
atom_frac 0.56636038 0.53425950 0.00977093 Se
atom_frac 0.43342135 0.66679758 0.02663857 Mo
atom_frac 0.56676357 0.73348338 0.04328290 Se
atom_frac 0.56648646 0.73350904 0.00994307 Se
atom_frac 0.43342139 0.86662350 0.02663854 Mo
atom_frac 0.56676352 0.93328032 0.04328281 Se
atom_frac 0.56648620 0.93297672 0.00994306 Se
atom_frac 0.63293142 0.06627791 0.02657696 Mo
atom_frac 0.76667723 0.13332292 0.04321624 Se
atom_frac 0.76666561 0.13333580 0.00995136 Se
atom_frac 0.63520943 0.26479105 0.02641552 Mo
atom_frac 0.76663323 0.33291443 0.04327723 Se
atom_frac 0.76790025 0.33364103 0.00977088 Se
atom_frac 0.63520788 0.47041631 0.02641564 Mo
atom_frac 0.76663313 0.53371899 0.04327716 Se
atom_frac 0.76789944 0.53425952 0.00977103 Se
atom_frac 0.63293129 0.66665397 0.02657711 Mo
atom_frac 0.76667708 0.73335404 0.04321644 Se
atom_frac 0.76666528 0.73332955 0.00995144 Se
atom_frac 0.63339532 0.86669718 0.02660705 Mo
atom_frac 0.76676516 0.93338299 0.04325462 Se
atom_frac 0.76663903 0.93331948 0.00992889 Se
atom_frac 0.83337680 0.06662440 0.02658307 Mo
atom_frac 0.96661796 0.13323584 0.04325463 Se
atom_frac 0.96668125 0.13336234 0.00992883 Se
atom_frac 0.83372118 0.26706953 0.02657711 Mo
atom_frac 0.96671998 0.33323717 0.04328286 Se
atom_frac 0.96702313 0.33351487 0.00994318 Se
atom_frac 0.83267765 0.46633914 0.02657730 Mo
atom_frac 0.96616314 0.53308164 0.04325356 Se
atom_frac 0.96670956 0.53335525 0.01000194 Se
atom_frac 0.83372255 0.66665331 0.02657721 Mo
atom_frac 0.96671993 0.73348343 0.04328305 Se
atom_frac 0.96702288 0.73350899 0.00994320 Se
atom_frac 0.83337550 0.86675186 0.02658316 Mo
atom_frac 0.96661776 0.93338289 0.04325465 Se
atom_frac 0.96668080 0.93331908 0.00992894 Se
