# 
# This is the geometry file that corresponds to the current relaxation step.
# If you do not want this file to be written, set the "write_restart_geometry" flag to .false.
#  aims_uuid : C24397BB-14E2-4A6C-A80B-E34488AD8A3C                                
# 
  set_vacuum_level        99.650342
lattice_vector     15.86579708      0.00000000      0.00000000
lattice_vector     -7.83979262     13.66810464      0.00000000
lattice_vector      0.00000000      0.00000000    100.00000000
atom_frac       0.53154298      0.56894522      0.49575833 Mo
atom_frac       0.66113052      0.63358966      0.51182288 S
atom_frac       0.66544474      0.63167612      0.48050449 S
atom_frac       0.53151670      0.76259829      0.49575588 Mo
atom_frac       0.66106254      0.82744981      0.51182354 S
atom_frac       0.66544478      0.83376157      0.48050485 S
atom_frac       0.53354400      0.96560424      0.49660561 Mo
atom_frac       0.66604165      0.03188512      0.51235273 S
atom_frac       0.66683391      0.03375110      0.48106775 S
atom_frac       0.53354542      0.16678987      0.49677778 Mo
atom_frac       0.66635700      0.23316830      0.51247975 S
atom_frac       0.66679849      0.23337979      0.48117529 S
atom_frac       0.53354801      0.36796217      0.49660631 Mo
atom_frac       0.66606362      0.43415339      0.51234986 S
atom_frac       0.66682881      0.43305968      0.48106645 S
atom_frac       0.73247539      0.56685975      0.49657627 Mo
atom_frac       0.86562307      0.63356092      0.51229153 S
atom_frac       0.86633412      0.63269301      0.48101042 S
atom_frac       0.73111221      0.76556918      0.49617551 Mo
atom_frac       0.86411457      0.83204415      0.51203730 S
atom_frac       0.86672468      0.83336214      0.48084741 S
atom_frac       0.73244871      0.96563483      0.49657979 Mo
atom_frac       0.86560697      0.03203001      0.51229411 S
atom_frac       0.86632670      0.03362814      0.48101541 S
atom_frac       0.73335473      0.16653736      0.49682019 Mo
atom_frac       0.86684224      0.23312020      0.51245679 S
atom_frac       0.86648505      0.23335400      0.48116958 S
atom_frac       0.73334822      0.36683354      0.49681829 Mo
atom_frac       0.86685090      0.43371970      0.51245258 S
atom_frac       0.86649016      0.43310316      0.48116905 S
atom_frac       0.93357382      0.56688405      0.49674599 Mo
atom_frac       0.06790396      0.63355488      0.51229578 S
atom_frac       0.06637762      0.63273450      0.48101495 S
atom_frac       0.93298058      0.76645784      0.49657381 Mo
atom_frac       0.06658115      0.83316134      0.51219823 S
atom_frac       0.06659889      0.83310528      0.48095734 S
atom_frac       0.93297718      0.96655156      0.49657592 Mo
atom_frac       0.06657599      0.03340458      0.51220094 S
atom_frac       0.06659091      0.03349598      0.48095865 S
atom_frac       0.93356370      0.16673274      0.49675051 Mo
atom_frac       0.06791486      0.23434232      0.51229910 S
atom_frac       0.06637744      0.23362798      0.48102066 S
atom_frac       0.93369156      0.36685123      0.49680687 Mo
atom_frac       0.06801577      0.43401694      0.51233236 S
atom_frac       0.06620746      0.43308932      0.48105869 S
atom_frac       0.13459702      0.56683876      0.49658066 Mo
atom_frac       0.27238374      0.63350019      0.51183848 S
atom_frac       0.26624196      0.63171484      0.48051990 S
atom_frac       0.13382025      0.76648506      0.49658164 Mo
atom_frac       0.26793827      0.83198302      0.51205969 S
atom_frac       0.26672598      0.83337136      0.48085721 S
atom_frac       0.13361021      0.96683309      0.49657962 Mo
atom_frac       0.26686605      0.03342286      0.51221469 S
atom_frac       0.26706084      0.03352761      0.48096841 S
atom_frac       0.13383302      0.16737204      0.49658504 Mo
atom_frac       0.26794874      0.23594973      0.51206325 S
atom_frac       0.26672370      0.23334974      0.48085903 S
atom_frac       0.13459717      0.36780760      0.49658489 Mo
atom_frac       0.27244261      0.43893346      0.51184189 S
atom_frac       0.26623173      0.43450403      0.48052288 S
atom_frac       0.33745361      0.56875298      0.49577113 Mo
atom_frac       0.46643548      0.63318417      0.47996349 S
atom_frac       0.33474533      0.76553641      0.49619350 Mo
atom_frac       0.46644814      0.82706773      0.51184400 S
atom_frac       0.46835040      0.83380036      0.48052325 S
atom_frac       0.33383065      0.96646988      0.49659599 Mo
atom_frac       0.46643122      0.03196531      0.51231525 S
atom_frac       0.46732865      0.03363015      0.48104861 S
atom_frac       0.33382254      0.16739424      0.49659726 Mo
atom_frac       0.46642917      0.23444328      0.51231607 S
atom_frac       0.46731886      0.23367616      0.48104925 S
atom_frac       0.33475186      0.36924930      0.49619638 Mo
atom_frac       0.46646218      0.43936251      0.51184667 S
atom_frac       0.46834429      0.43452698      0.48052597 S
# 
# What follows is the current estimated Hessian matrix constructed by the BFGS algorithm.
# This is NOT the true Hessian matrix of the system.
# If you do not want this information here, switch it off using the "hessian_to_restart_geometry" keyword.
# 
trust_radius             0.0099224049
hessian_file
