# 
# This is the geometry file that corresponds to the current relaxation step.
# If you do not want this file to be written, set the "write_restart_geometry" flag to .false.
#  aims_uuid : C172C93E-4C3D-43AA-AE05-974A6146784F                                
# 
  set_vacuum_level        99.650342
lattice_vector     15.86579708      0.00000000      0.00000000
lattice_vector     -7.83979262     13.66810464      0.00000000
lattice_vector      0.00000000      0.00000000    100.00000000
atom_frac       0.53152802      0.56889902      0.49575452 Mo
atom_frac       0.66112678      0.63359894      0.51181780 S
atom_frac       0.66544996      0.63166803      0.48050522 S
atom_frac       0.53150556      0.76262996      0.49575200 Mo
atom_frac       0.66105655      0.82743647      0.51181926 S
atom_frac       0.66544862      0.83377539      0.48050475 S
atom_frac       0.53352628      0.96557759      0.49660687 Mo
atom_frac       0.66601399      0.03186663      0.51235547 S
atom_frac       0.66680486      0.03373024      0.48106650 S
atom_frac       0.53344935      0.16673758      0.49677929 Mo
atom_frac       0.66633870      0.23316267      0.51247405 S
atom_frac       0.66678876      0.23337846      0.48118603 S
atom_frac       0.53353091      0.36797665      0.49660753 Mo
atom_frac       0.66603319      0.43413868      0.51235305 S
atom_frac       0.66679724      0.43304583      0.48106471 S
atom_frac       0.73248350      0.56682463      0.49657731 Mo
atom_frac       0.86563141      0.63358431      0.51229200 S
atom_frac       0.86634280      0.63270485      0.48101114 S
atom_frac       0.73112929      0.76558234      0.49617401 Mo
atom_frac       0.86410488      0.83203977      0.51203829 S
atom_frac       0.86672466      0.83336268      0.48084448 S
atom_frac       0.73245900      0.96566996      0.49658090 Mo
atom_frac       0.86561124      0.03201314      0.51229543 S
atom_frac       0.86633113      0.03362317      0.48101535 S
atom_frac       0.73338482      0.16651389      0.49682207 Mo
atom_frac       0.86686182      0.23313830      0.51245929 S
atom_frac       0.86649969      0.23337718      0.48117207 S
atom_frac       0.73338756      0.36689689      0.49682017 Mo
atom_frac       0.86686596      0.43371832      0.51245677 S
atom_frac       0.86650016      0.43309153      0.48116985 S
atom_frac       0.93355512      0.56687271      0.49674728 Mo
atom_frac       0.06791115      0.63355651      0.51229555 S
atom_frac       0.06637346      0.63272603      0.48101642 S
atom_frac       0.93299623      0.76649119      0.49657342 Mo
atom_frac       0.06657455      0.83314669      0.51220103 S
atom_frac       0.06659460      0.83309504      0.48095564 S
atom_frac       0.93299006      0.96653893      0.49657556 Mo
atom_frac       0.06657283      0.03341110      0.51220295 S
atom_frac       0.06659003      0.03350051      0.48095778 S
atom_frac       0.93355028      0.16671308      0.49675183 Mo
atom_frac       0.06792136      0.23435445      0.51229955 S
atom_frac       0.06637259      0.23363876      0.48102150 S
atom_frac       0.93372224      0.36687540      0.49680877 Mo
atom_frac       0.06802005      0.43401519      0.51233869 S
atom_frac       0.06621246      0.43308797      0.48105370 S
atom_frac       0.13456474      0.56679154      0.49658159 Mo
atom_frac       0.27238670      0.63351373      0.51183456 S
atom_frac       0.26622343      0.63171275      0.48051973 S
atom_frac       0.13380323      0.76649014      0.49658127 Mo
atom_frac       0.26794584      0.83198065      0.51205495 S
atom_frac       0.26672961      0.83337440      0.48086033 S
atom_frac       0.13356864      0.96680540      0.49658003 Mo
atom_frac       0.26685212      0.03341683      0.51221361 S
atom_frac       0.26704343      0.03351992      0.48097090 S
atom_frac       0.13380563      0.16735423      0.49658469 Mo
atom_frac       0.26795510      0.23595839      0.51205772 S
atom_frac       0.26672595      0.23334877      0.48086298 S
atom_frac       0.13457669      0.36782520      0.49658583 Mo
atom_frac       0.27244599      0.43892301      0.51183895 S
atom_frac       0.26621347      0.43448754      0.48052173 S
atom_frac       0.33744351      0.56874462      0.49576823 Mo
atom_frac       0.46644639      0.63319021      0.47996260 S
atom_frac       0.33479106      0.76555109      0.49619241 Mo
atom_frac       0.46644299      0.82706095      0.51184631 S
atom_frac       0.46835917      0.83382107      0.48051657 S
atom_frac       0.33387469      0.96651912      0.49659576 Mo
atom_frac       0.46644567      0.03194740      0.51232000 S
atom_frac       0.46735435      0.03362362      0.48104547 S
atom_frac       0.33387327      0.16739061      0.49659705 Mo
atom_frac       0.46644911      0.23447827      0.51232057 S
atom_frac       0.46734969      0.23371066      0.48104636 S
atom_frac       0.33479569      0.36928520      0.49619530 Mo
atom_frac       0.46645481      0.43936214      0.51184923 S
atom_frac       0.46835079      0.43451372      0.48051906 S
# 
# What follows is the current estimated Hessian matrix constructed by the BFGS algorithm.
# This is NOT the true Hessian matrix of the system.
# If you do not want this information here, switch it off using the "hessian_to_restart_geometry" keyword.
# 
trust_radius             0.0003683295
hessian_file
