#
lattice_vector  19.08000000 0.00000000 0.00000000
lattice_vector  -7.95000000 16.52376468 0.00000000
lattice_vector  0.00000000 0.00000000 100.00000000
#
atom 2.01758639 1.10399667 3.10248900 Mo
atom 0.21264014 2.20955550 4.66194600 S
atom 0.21175000 2.20059631 1.54339500 S
atom 0.42416026 4.40820895 3.09682100 Mo
atom -1.39913642 5.51240605 4.64665600 S
atom -1.37994251 5.49795107 1.52899900 S
atom -1.17432660 7.70646028 3.07978200 Mo
atom -3.00617183 8.79224611 4.62170800 S
atom -2.96903214 8.81252969 1.51254800 S
atom -2.76475226 11.01205510 3.07975500 Mo
atom -4.56724339 12.09721534 4.64660600 S
atom -4.56703057 12.12226058 1.52894400 S
atom -4.34482635 14.32035751 3.09677300 Mo
atom -6.14307295 15.41966341 4.66191000 S
atom -6.15042840 15.42415441 1.54337300 S
atom 5.84207211 1.11967293 3.08105000 Mo
atom 4.04830763 2.21466052 4.65134300 S
atom 4.02234376 2.20048709 1.53274600 S
atom 4.26054513 4.40691894 3.08108700 Mo
atom 2.46002733 5.51237350 4.64665200 S
atom 2.43803283 5.49794991 1.52900100 S
atom 2.65740212 7.70644376 3.07980100 Mo
atom 0.84778452 8.81036277 4.63667900 S
atom 0.84760192 8.80828077 1.52236500 S
atom 1.06002500 11.01630022 3.07905700 Mo
atom -0.74423167 12.11925986 4.63664700 S
atom -0.74590233 12.12028582 1.52234900 S
atom -0.52958068 14.33041751 3.07976200 Mo
atom -2.31610121 15.43928142 4.64661300 S
atom -2.33991159 15.42865862 1.52894800 S
atom 9.64993090 1.14288453 3.04172500 Mo
atom 7.91022736 2.29448401 4.60221500 S
atom 7.82626091 2.22463162 1.47999600 S
atom 8.11418607 4.43861102 3.00271600 Mo
atom 6.36196567 5.51265920 4.60224100 S
atom 6.25971894 5.48068109 1.48001400 S
atom 6.49953062 7.69109219 3.04175300 Mo
atom 4.69828941 8.79219142 4.62173800 S
atom 4.66506272 8.81251251 1.51260300 S
atom 4.88400359 11.01204403 3.07981000 Mo
atom 3.07657828 12.11924466 4.63668100 S
atom 3.07850049 12.12028070 1.52238100 S
atom 3.28742269 14.33040809 3.07979900 Mo
atom 1.48804937 15.46441043 4.62172100 S
atom 1.48417639 15.42379435 1.51256900 S
atom 13.45333888 1.11972597 3.08111900 Mo
atom 11.61129990 2.29452532 4.60225600 S
atom 11.68187464 2.22469342 1.48006200 S
atom 11.81989858 4.43865729 3.00278900 Mo
atom 10.07003343 5.50839194 1.43268500 S
atom 10.27589828 7.64797375 3.00268800 Mo
atom 8.52094078 8.71790173 4.60222900 S
atom 8.50883469 8.81978941 1.48000100 S
atom 8.70046771 10.99851404 3.08108900 Mo
atom 6.89540146 12.09719155 4.64666400 S
atom 6.89999440 12.12225083 1.52900300 S
atom 7.10075365 14.32035371 3.09683200 Mo
atom 5.28738707 15.43929827 4.64666500 S
atom 5.30917468 15.42868968 1.52901500 S
atom 17.27484920 1.10401303 3.10252000 Mo
atom 15.45791891 2.21470563 4.65138500 S
atom 15.48112921 2.20050196 1.53279200 S
atom 15.66753559 4.40695727 3.08110900 Mo
atom 13.77896229 5.51269770 4.60224700 S
atom 13.87500993 5.48067134 1.48005000 S
atom 14.06067019 7.69114688 3.04171000 Mo
atom 12.23688467 8.71795411 4.60218600 S
atom 12.26857412 8.81979684 1.47997800 S
atom 12.49620987 10.99855139 3.08104200 Mo
atom 10.70396063 12.09577464 4.65133900 S
atom 10.70665320 12.12414924 1.53274200 S
atom 10.91765733 14.31718660 3.10248800 Mo
atom 9.11064055 15.41967234 4.66194500 S
atom 9.11880472 15.42416383 1.54340400 S
