#=======================================================
# FHI-aims file: ./geometry.in
# Created using the Atomic Simulation Environment (ASE)
# Mon Jul 26 13:44:20 2021
#=======================================================
lattice_vector 3.1531194400000002 0.0000000000000000 0.0000000000000000 
lattice_vector 0.0000000000000000 3.1531195300000001 -0.0000000100000000 
lattice_vector 0.0000000000000000 -0.0000000100000000 3.1531195400000001 
atom_frac 1.0031713609935433 0.0000000412290114 0.0000001046582587 W
atom_frac 0.5000027655152828 0.5000026259708500 0.4999972265561572 W
