&CONTROL
calculation = "scf"
pseudo_dir = "" ! insert pseudopotential directory
prefix = "unfold"
disk_io = "low"
/

&SYSTEM
ibrav = 0
nat = 73
ntyp = 2
ecutwfc = 30
!noncolin = .true.
!lspinorb = .true.
/

&ELECTRONS
/

ATOMIC_SPECIES
W 1. ! add W pseudo name
Se 1. ! add Se pseudo name

CELL_PARAMETERS angstrom
16.30066971	0.00550601	0.00580538
-8.14547925	14.11943911	0.00611979
-0.00027683	-0.00047987	99.78976923

ATOMIC_POSITIONS angstrom
W	0.00262587	0.95874022	2.65989047
Se	1.63003918	1.91333727	4.35556523
Se	1.63126021	1.91551717	0.96663078
W	-1.60279613	3.80451235	2.66127833
Se	0.05157260	4.82800519	4.34715582
Se	0.05266548	4.83027636	0.97781511
W	-3.20986558	6.59182455	2.66257844
Se	-1.49637270	7.51304843	4.34895898
Se	-1.49524694	7.51517262	0.97850301
W	-4.87031650	9.40617296	2.66370089
Se	-3.22997060	10.33849271	4.35928337
Se	-3.22880278	10.34061842	0.97042818
W	-6.51575977	12.23682541	2.66485142
Se	-4.87947494	13.18182475	4.35672086
Se	-4.87824628	13.18394890	0.97536515
W	3.25854391	0.95991564	2.66111080
Se	4.88177649	1.91008614	4.35664326
Se	4.88305372	1.91227321	0.96806928
W	1.63166391	3.81668354	2.66231485
Se	3.20985371	4.83009227	4.34868829
Se	3.21114986	4.83218081	0.97841556
W	0.23262993	6.72313052	2.66380595
W	-1.58243929	9.38853391	2.66482092
Se	0.08360341	10.24953829	4.35114873
Se	0.08472896	10.25179014	0.98063728
W	-3.24149897	12.22731358	2.66605138
Se	-1.60736220	13.15872961	4.36143710
Se	-1.60617234	13.16095719	0.97304857
W	6.51490426	0.94036554	2.66235060
Se	8.14687594	1.88300399	4.35839558
Se	8.14810326	1.88523620	0.96877653
W	4.86526568	3.80748466	2.66357155
Se	6.50507795	4.71787398	4.35990466
Se	6.50638223	4.72001326	0.96968025
W	3.03191347	6.72450980	2.66465828
Se	4.76030389	7.51541046	4.35092085
Se	4.76163102	7.51756898	0.98068905
W	1.63333810	9.14924478	2.66568405
Se	3.18263434	10.25156914	4.35163298
Se	3.18391878	10.25375274	0.98228639
W	0.02598496	12.19630112	2.66716979
Se	1.63386470	13.16214570	4.36343720
Se	1.63501542	13.16439811	0.97329131
W	9.78072209	0.93667717	2.66353072
Se	11.41354944	1.88393090	4.35955574
Se	11.41471586	1.88623379	0.96998830
W	8.14443748	3.77290020	2.66486144
Se	9.78111872	4.71362736	4.36085410
Se	9.78238186	4.71574306	0.97131713
W	6.47483601	6.59532913	2.66590455
Se	8.12507618	7.52758717	4.36145287
Se	8.12638911	7.52969890	0.97286533
W	4.84988622	9.39101114	2.66703775
Se	6.49624996	10.34194871	4.36272619
Se	6.49749426	10.34410184	0.97382550
W	3.24330712	12.19814930	2.66825805
Se	4.87550973	13.16107835	4.36389775
Se	4.87671956	13.16339023	0.97510360
W	13.04676251	0.94242069	2.66466255
Se	14.67876449	1.91284716	4.36021618
Se	14.67988145	1.91508589	0.97140001
W	11.41887776	3.77384384	2.66606523
Se	13.05716410	4.71979561	4.36228229
Se	13.05822245	4.72196481	0.97206646
W	9.78279174	6.60040105	2.66723085
Se	11.43949515	7.52872236	4.36260774
Se	11.44066991	7.53077574	0.97412113
W	8.13754363	9.41056754	2.66829540
Se	9.78342017	10.35070222	4.36018024
Se	9.78460867	10.35280249	0.97878180
W	6.51064062	12.23076360	2.66945750
Se	8.14758578	13.18624383	4.36133970
Se	8.14879591	13.18834703	0.97993745

K_POINTS automatic
4 4 1 0 0 0