# 
# This is the geometry file that corresponds to the current relaxation step.
# If you do not want this file to be written, set the "write_restart_geometry" flag to .false.
#  aims_uuid : 43F531FD-A66D-4933-A8AD-35A535B5F887                                
# 
  set_vacuum_level        99.650342
lattice_vector     15.80271867      0.00000000      0.00000000
lattice_vector     -7.87096434     13.65967927      0.00000000
lattice_vector      0.00000000      0.00000000    100.00000000
atom_frac       0.53344389      0.56672889      0.49650342 Mo
atom_frac       0.66671005      0.63335179      0.51218123 S
atom_frac       0.66671000      0.63335180      0.48082561 S
atom_frac       0.53344335      0.76672868      0.49650344 Mo
atom_frac       0.66671001      0.83335149      0.51218119 S
atom_frac       0.66670993      0.83335144      0.48082566 S
atom_frac       0.53344351      0.96672961      0.49650343 Mo
atom_frac       0.66671027      0.03335142      0.51218117 S
atom_frac       0.66671020      0.03335139      0.48082567 S
atom_frac       0.53344290      0.16672863      0.49650341 Mo
atom_frac       0.66670957      0.23335119      0.51218124 S
atom_frac       0.66670961      0.23335124      0.48082560 S
atom_frac       0.53344495      0.36673131      0.49650341 Mo
atom_frac       0.66671102      0.43335141      0.51218118 S
atom_frac       0.66671104      0.43335137      0.48082565 S
atom_frac       0.73344326      0.56672991      0.49650341 Mo
atom_frac       0.86671000      0.63335057      0.51218127 S
atom_frac       0.86671008      0.63335064      0.48082558 S
atom_frac       0.73344477      0.76673026      0.49650342 Mo
atom_frac       0.86671117      0.83335215      0.51218117 S
atom_frac       0.86671118      0.83335208      0.48082567 S
atom_frac       0.73344499      0.96672984      0.49650342 Mo
atom_frac       0.86671002      0.03335149      0.51218139 S
atom_frac       0.86670997      0.03335146      0.48082544 S
atom_frac       0.73344429      0.16673009      0.49650342 Mo
atom_frac       0.86671090      0.23335147      0.51218114 S
atom_frac       0.86671087      0.23335148      0.48082569 S
atom_frac       0.73344454      0.36672867      0.49650342 Mo
atom_frac       0.86671009      0.43335217      0.51218135 S
atom_frac       0.86671006      0.43335218      0.48082549 S
atom_frac       0.93344456      0.56672931      0.49650342 Mo
atom_frac       0.06670996      0.63335136      0.51218132 S
atom_frac       0.06670991      0.63335142      0.48082551 S
atom_frac       0.93344292      0.76672760      0.49650343 Mo
atom_frac       0.06671028      0.83335195      0.51218114 S
atom_frac       0.06671021      0.83335189      0.48082570 S
atom_frac       0.93344325      0.96673090      0.49650341 Mo
atom_frac       0.06670999      0.03335087      0.51218122 S
atom_frac       0.06671001      0.03335090      0.48082561 S
atom_frac       0.93344398      0.16672819      0.49650341 Mo
atom_frac       0.06671008      0.23335185      0.51218122 S
atom_frac       0.06671015      0.23335191      0.48082561 S
atom_frac       0.93344302      0.36673050      0.49650342 Mo
atom_frac       0.06671021      0.43335111      0.51218110 S
atom_frac       0.06671020      0.43335101      0.48082573 S
atom_frac       0.13344371      0.56673035      0.49650340 Mo
atom_frac       0.26671028      0.63335101      0.51218119 S
atom_frac       0.26671033      0.63335100      0.48082564 S
atom_frac       0.13344376      0.76672863      0.49650342 Mo
atom_frac       0.26671052      0.83335222      0.51218113 S
atom_frac       0.26671048      0.83335227      0.48082571 S
atom_frac       0.13344502      0.96673024      0.49650341 Mo
atom_frac       0.26670990      0.03335105      0.51218135 S
atom_frac       0.26670993      0.03335102      0.48082549 S
atom_frac       0.13344286      0.16672890      0.49650342 Mo
atom_frac       0.26671049      0.23335152      0.51218111 S
atom_frac       0.26671053      0.23335163      0.48082574 S
atom_frac       0.13344530      0.36672993      0.49650343 Mo
atom_frac       0.26671038      0.43335190      0.51218137 S
atom_frac       0.26671039      0.43335182      0.48082548 S
atom_frac       0.33344441      0.56672910      0.49650341 Mo
atom_frac       0.46671032      0.63335133      0.51218129 S
atom_frac       0.46671039      0.63335141      0.48082556 S
atom_frac       0.33344351      0.76672910      0.49650340 Mo
atom_frac       0.46671042      0.83335174      0.51218120 S
atom_frac       0.46671055      0.83335179      0.48082564 S
atom_frac       0.33344525      0.96673151      0.49650343 Mo
atom_frac       0.46671044      0.03335132      0.51218135 S
atom_frac       0.46671042      0.03335124      0.48082549 S
atom_frac       0.33344410      0.16672829      0.49650341 Mo
atom_frac       0.46671054      0.23335204      0.51218115 S
atom_frac       0.46671053      0.23335204      0.48082568 S
atom_frac       0.33344357      0.36673031      0.49650344 Mo
atom_frac       0.46670967      0.43335110      0.51218127 S
atom_frac       0.46670957      0.43335110      0.48082558 S
# 
# What follows is the current estimated Hessian matrix constructed by the BFGS algorithm.
# This is NOT the true Hessian matrix of the system.
# If you do not want this information here, switch it off using the "hessian_to_restart_geometry" keyword.
# 
trust_radius             0.0004775760
hessian_file
