# 
# This is the geometry file that corresponds to the current relaxation step.
# If you do not want this file to be written, set the "write_restart_geometry" flag to .false.
#  aims_uuid : C888FC74-0A1F-40FB-A403-29EFDFA6795E                                
# 
  set_vacuum_level        52.619697
lattice_vector     16.23865900      0.00000000      0.00000000
lattice_vector     -8.11989635     14.06215255      0.00000000
lattice_vector      0.00000000      0.00000000     99.93951163
atom_frac       0.03342701      0.06623692      0.02684039 Mo
atom_frac       0.17110711      0.13828832      0.04277167 Se
atom_frac       0.16278883      0.13049078      0.00943971 Se
atom_frac       0.03576790      0.26788686      0.02699443 Mo
atom_frac       0.18152827      0.34077036      0.04291152 Se
atom_frac       0.16167386      0.33084089      0.00918164 Se
atom_frac       0.03342931      0.46719605      0.02683959 Mo
atom_frac       0.17110413      0.53282466      0.04277177 Se
atom_frac       0.16279000      0.53230227      0.00943922 Se
atom_frac       0.03301098      0.66602433      0.02660293 Mo
atom_frac       0.16766568      0.73233287      0.04295138 Se
atom_frac       0.16652920      0.73347528      0.01004891 Se
atom_frac       0.03300770      0.86699022      0.02660352 Mo
atom_frac       0.16766658      0.93533249      0.04295145 Se
atom_frac       0.16652617      0.93305243      0.01004954 Se
atom_frac       0.23448424      0.06896742      0.02629723 Mo
atom_frac       0.36718403      0.13828418      0.04277166 Se
atom_frac       0.36770312      0.13048734      0.00943961 Se
atom_frac       0.22926565      0.26419507      0.02519550 Mo
atom_frac       0.37203117      0.34405202      0.01258152 Se
atom_frac       0.22926972      0.46508932      0.02519539 Mo
atom_frac       0.37202023      0.52797203      0.01257962 Se
atom_frac       0.23448232      0.66552031      0.02629702 Mo
atom_frac       0.36717734      0.72889070      0.04277191 Se
atom_frac       0.36770274      0.73721326      0.00943970 Se
atom_frac       0.23398019      0.86699025      0.02660347 Mo
atom_frac       0.36583266      0.93291619      0.04340327 Se
atom_frac       0.36762677      0.93381112      0.01017863 Se
atom_frac       0.43280908      0.06623535      0.02684029 Mo
atom_frac       0.56508851      0.13458140      0.04362657 Se
atom_frac       0.56845295      0.13350206      0.01068792 Se
atom_frac       0.43493096      0.26419010      0.02519544 Mo
atom_frac       0.55924117      0.34076061      0.04291181 Se
atom_frac       0.56916772      0.33083385      0.00918146 Se
atom_frac       0.55595203      0.52796696      0.01258008 Se
atom_frac       0.43490791      0.67072332      0.02519540 Mo
atom_frac       0.55922315      0.71845685      0.04291145 Se
atom_frac       0.56915941      0.73832503      0.00918233 Se
atom_frac       0.43280713      0.86657369      0.02684065 Mo
atom_frac       0.56508644      0.93050525      0.04362707 Se
atom_frac       0.56845268      0.93494369      0.01068833 Se
atom_frac       0.63353574      0.06676836      0.02742740 Mo
atom_frac       0.76666895      0.13333712      0.04408904 Se
atom_frac       0.76666595      0.13333045      0.01093206 Se
atom_frac       0.63211683      0.26788320      0.02699440 Mo
atom_frac       0.76542039      0.33491405      0.04362596 Se
atom_frac       0.76649273      0.33154472      0.01068747 Se
atom_frac       0.63581433      0.46507601      0.02519547 Mo
atom_frac       0.76171878      0.53281843      0.04277175 Se
atom_frac       0.76951115      0.53229833      0.00943929 Se
atom_frac       0.63580524      0.67072480      0.02519553 Mo
atom_frac       0.76170752      0.72888816      0.04277190 Se
atom_frac       0.76950601      0.73721141      0.00943987 Se
atom_frac       0.63211465      0.86423493      0.02699536 Mo
atom_frac       0.76541699      0.93050489      0.04362707 Se
atom_frac       0.76649046      0.93494377      0.01068844 Se
atom_frac       0.83323162      0.06676911      0.02742747 Mo
atom_frac       0.96949597      0.13458403      0.04362661 Se
atom_frac       0.96505188      0.13350404      0.01068803 Se
atom_frac       0.83323337      0.26646707      0.02742669 Mo
atom_frac       0.96949635      0.33491603      0.04362600 Se
atom_frac       0.96505480      0.33154623      0.01068746 Se
atom_frac       0.83376543      0.46719396      0.02683959 Mo
atom_frac       0.96708495      0.53416847      0.04340232 Se
atom_frac       0.96618865      0.53237620      0.01017788 Se
atom_frac       0.83103212      0.66551679      0.02629716 Mo
atom_frac       0.96466562      0.73233174      0.04295138 Se
atom_frac       0.96694350      0.73347401      0.01004906 Se
atom_frac       0.83376371      0.86657370      0.02684075 Mo
atom_frac       0.96708417      0.93291698      0.04340336 Se
atom_frac       0.96618466      0.93381188      0.01017873 Se
# 
# What follows is the current estimated Hessian matrix constructed by the BFGS algorithm.
# This is NOT the true Hessian matrix of the system.
# If you do not want this information here, switch it off using the "hessian_to_restart_geometry" keyword.
# 
trust_radius             0.0002378871
hessian_file
