lattice_vector 16.3123209500000002 -0.0000000000 -0.0000000000 
lattice_vector -8.1566587500000001 14.1258181500000006 -0.0000000000 
lattice_vector 0.0000 0.0000 103.3258531898449064 
atom -0.0000769795701276 0.9416932739598520 51.6596325307838313 Mo
atom 1.6350305804298726 1.8889131339598522 53.3150365307838427 Se
atom 1.6274115204298727 1.8773433839598519 49.9901172507838396 Se
atom -1.6314087295701281 3.7668569039598530 51.6536113107838304 Mo
atom 0.0036988304298725 4.7140767639598522 53.3090153107838489 Se
atom -0.0039202295701277 4.7025070139598535 49.9840960307838387 Se
atom -3.2627404795701280 6.5920205339598521 51.6475900907838295 Mo
atom -1.6276329195701280 7.5392403939598527 53.3029940907838338 Se
atom -1.6352519795701281 7.5276706439598531 49.9780748107838306 Se
atom -4.8940722295701287 9.4171841639598544 51.6415688707838285 Mo
atom -3.2589646695701275 10.3644040239598549 53.2969728707838328 Se
atom -3.2665837295701277 10.3528342739598536 49.9720535907838297 Se
atom -6.5254039795701289 12.2423477939598566 51.6355476507838276 Mo
atom -4.8902964195701282 13.1895676539598554 53.2909516507838461 Se
atom -4.8979154795701287 13.1779979039598558 49.9660323707838359 Se
atom 3.2623872104298721 0.9413108239598520 51.6520299107838312 Mo
atom 4.8974947704298728 1.8885306839598521 53.3074339107838426 Se
atom 4.8898757104298722 1.8769609339598521 49.9825146307838395 Se
atom 1.6310554604298719 3.7664744539598529 51.6460086907838303 Mo
atom 3.2585439604298720 4.7021245639598535 49.9764934107838386 Se
atom -0.0002762895701281 6.5916380839598521 51.6399874707838293 Mo
atom 1.6272122104298716 7.5272881939598530 49.9704721907838305 Se
atom -1.6316080395701287 9.4168017139598543 51.6339662507838284 Mo
atom 0.0034995204298724 10.3640215739598549 53.2893702507838327 Se
atom -0.0041195395701290 10.3524518239598535 49.9644509707838296 Se
atom -3.2629397895701286 12.2419653439598566 51.6279450307838275 Mo
atom -1.6278322295701280 13.1891852039598554 53.2833490307838460 Se
atom -1.6354512895701285 13.1776154539598558 49.9584297507838357 Se
atom 6.5248514004298723 0.9409283739598521 51.6444272907838311 Mo
atom 8.1599589604298721 1.8881482339598521 53.2998312907838425 Se
atom 8.1523399004298724 1.8765784839598521 49.9749120107838394 Se
atom 4.8935196504298721 3.7660920039598529 51.6384060707838302 Mo
atom 6.5286272104298719 4.7133118639598521 53.2938100707838487 Se
atom 6.5210081504298740 4.7017421139598534 49.9688907907838384 Se
atom 4.8896764004298712 7.5269057439598530 49.9628695707838304 Se
atom 1.6308561504298724 9.4164192639598543 51.6263636307838283 Mo
atom 3.2659637104298729 10.3636391239598549 53.2817676307838326 Se
atom 3.2583446504298723 10.3520693739598535 49.9568483507838295 Se
atom -0.0004755995701282 12.2415828939598565 51.6203424107838273 Mo
atom 1.6346319604298722 13.1888027539598554 53.2757464107838459 Se
atom 1.6270129004298735 13.1772330039598558 49.9508271307838356 Se
atom 9.7873155904298734 0.9405459239598520 51.6368246707838310 Mo
atom 11.4224231504298750 1.8877657839598521 53.2922286707838424 Se
atom 11.4148040904298735 1.8761960339598520 49.9673093907838393 Se
atom 8.1559838404298741 3.7657095539598529 51.6308034507838300 Mo
atom 9.7910914004298739 4.7129294139598521 53.2862074507838344 Se
atom 9.7834723404298742 4.7013596639598534 49.9612881707838383 Se
atom 6.5246520904298722 6.5908731839598520 51.6247822307838291 Mo
atom 8.1597596504298728 7.5380930439598535 53.2801862307838334 Se
atom 8.1521405904298732 7.5265232939598530 49.9552669507838303 Se
atom 4.8933203404298720 9.4160368139598543 51.6187610107838282 Mo
atom 6.5284279004298735 10.3632566739598548 53.2741650107838325 Se
atom 6.5208088404298730 10.3516869239598535 49.9492457307838293 Se
atom 3.2619885904298740 12.2412004439598565 51.6127397907838272 Mo
atom 4.8970961504298733 13.1884203039598553 53.2681437907838458 Se
atom 4.8894770904298728 13.1768505539598557 49.9432245107838355 Se
atom 13.0497797804298727 0.9401634739598520 51.6292220507838309 Mo
atom 14.6848873404298743 1.8873833339598520 53.2846260507838423 Se
atom 14.6772682804298729 1.8758135839598524 49.9597067707838391 Se
atom 11.4184480304298734 3.7653271039598528 51.6232008307838299 Mo
atom 13.0535555904298732 4.7125469639598521 53.2786048307838342 Se
atom 13.0459365304298736 4.7009772139598534 49.9536855507838382 Se
atom 9.7871162804298724 6.5904907339598520 51.6171796107838290 Mo
atom 11.4222238404298722 7.5377105939598534 53.2725836107838333 Se
atom 11.4146047804298725 7.5261408439598529 49.9476643307838302 Se
atom 8.1557845304298713 9.4156543639598542 51.6111583907838281 Mo
atom 9.7908920904298729 10.3628742239598548 53.2665623907838324 Se
atom 9.7832730304298714 10.3513044739598534 49.9416431107838292 Se
atom 6.5244527804298720 12.2408179939598565 51.6051371707838271 Mo
atom 8.1595603404298718 13.1880378539598553 53.2605411707838456 Se
atom 8.1519412804298703 13.1764681039598557 49.9356218907838354 Se
