# 
# This is the geometry file that corresponds to the current relaxation step.
# If you do not want this file to be written, set the "write_restart_geometry" flag to .false.
#  aims_uuid : EE99E5EB-A459-4327-AE33-528B7ADDDD14                                
# 
  set_vacuum_level       103.288256
lattice_vector     16.31232095      0.00000000      0.00000000
lattice_vector     -8.15665875     14.12581815      0.00000000
lattice_vector      0.00000000      0.00000000    103.32585319
atom       0.00568013      0.93469231     51.64791644 Mo
atom       1.66337633      1.95414323     53.24784096 Se
atom       1.59071438      1.84122460     49.89921829 Se
atom      -1.60313055      3.78206070     51.66281789 Mo
atom       0.18084149      4.81214627     53.25626763 Se
atom      -0.06369458      4.67080412     49.87346771 Se
atom      -3.26497455      6.59886698     51.64775508 Mo
atom      -1.55322606      7.52469787     53.24770707 Se
atom      -1.68733039      7.51813586     49.89903717 Se
atom      -4.89418387      9.40700983     51.62455367 Mo
atom      -3.23747447     10.34294106     53.26594702 Se
atom      -3.26643782     10.35977687     49.96185150 Se
atom      -6.53336770     12.24566053     51.62465706 Mo
atom      -4.89430601     13.21224196     53.26603196 Se
atom      -4.89429450     13.17887533     49.96199100 Se
atom       3.26230708      0.97459121     51.59245759 Mo
atom       4.86125129      1.95416529     53.24774680 Se
atom       4.93381923      1.84113346     49.89911585 Se
atom       1.58685168      3.73059166     51.48069693 Mo
atom       3.26219965      4.85667250     50.21232096 Se
atom      -0.05286349      6.57043788     51.48053420 Mo
atom       1.75993436      7.45788275     50.21168452 Se
atom      -1.60227638      9.39900172     51.59227768 Mo
atom       0.04571199     10.29360241     53.24755771 Se
atom      -0.01594265     10.41318397     49.89894680 Se
atom      -3.25518757     12.24567298     51.62466586 Mo
atom      -1.64196776     13.17694732     53.31127644 Se
atom      -1.62042637     13.18946683     49.97488243 Se
atom       6.51890243      0.93465400     51.64784771 Mo
atom       8.11974673      1.89989024     53.33407629 Se
atom       8.18367030      1.88359069     50.02495847 Se
atom       4.93761113      3.73052454     51.48052344 Mo
atom       6.34349442      4.81212523     53.25606723 Se
atom       6.58807954      4.67066287     49.87321611 Se
atom       4.76433186      7.45790251     50.21130231 Se
atom       1.62220286      9.47150824     51.48025746 Mo
atom       3.26196262     10.14802891     53.25586332 Se
atom       3.26186903     10.43090068     49.87311290 Se
atom      -0.00857053     12.23895851     51.64777625 Mo
atom       1.62783370     13.14255483     53.33404999 Se
atom       1.64572977     13.20611343     50.02492967 Se
atom       9.78882595      0.94138475     51.70710242 Mo
atom      11.41840534      1.88222939     53.37967776 Se
atom      11.41843618      1.88216396     50.05110429 Se
atom       8.12751352      3.78204849     51.66266189 Mo
atom       9.75364382      4.72999988     53.33400964 Se
atom       9.79969184      4.68256287     50.02488554 Se
atom       6.57702919      6.57030668     51.48023932 Mo
atom       8.07728915      7.52460060     53.24748424 Se
atom       8.21156022      7.51811152     49.89883246 Se
atom       4.90164384      9.47147086     51.48012494 Mo
atom       6.47817346     10.29351592     53.24742718 Se
atom       6.53981091     10.41322659     49.89885043 Se
atom       3.26187204     12.20833854     51.66264406 Mo
atom       4.89588720     13.14251807     53.33406380 Se
atom       4.87795682     13.20614813     50.02493719 Se
atom      13.04805682      0.94137975     51.70713497 Mo
atom      14.71708108      1.89985953     53.33420193 Se
atom      14.65319874      1.88365584     50.02507169 Se
atom      11.41834231      3.76389408     51.70706617 Mo
atom      13.08293562      4.72999585     53.33411212 Se
atom      13.03703765      4.68260535     50.02499197 Se
atom       9.78913984      6.59883133     51.64764620 Mo
atom      11.41816785      7.54433401     53.31114830 Se
atom      11.41828396      7.51937462     49.97476308 Se
atom       8.12621753      9.39896169     51.59212817 Mo
atom       9.76131706     10.34290307     53.26587104 Se
atom       9.79039716     10.35979221     49.96179421 Se
atom       6.53229239     12.23896150     51.64773775 Mo
atom       8.16568041     13.17689309     53.31128238 Se
atom       8.14416170     13.18952806     49.97490343 Se
# 
# What follows is the current estimated Hessian matrix constructed by the BFGS algorithm.
# This is NOT the true Hessian matrix of the system.
# If you do not want this information here, switch it off using the "hessian_to_restart_geometry" keyword.
# 
trust_radius             0.0004905501
hessian_file
