#
# temporary structure-file for finite-difference calculation of forces
# displacement  -0.0020 of \# atom     0 direction     0
#
lattice_vector    3.17449915    0.00000000   -0.00000001
lattice_vector    0.00000000    3.17449925   -0.00000004
lattice_vector   -0.00000001   -0.00000004    3.17449928
atom   -0.00198652    0.00000215    0.00000276   W
atom    1.58723609    1.58724745    1.58724686   W
