# 
# This is the geometry file that corresponds to the current relaxation step.
# If you do not want this file to be written, set the "write_restart_geometry" flag to .false.
#  aims_uuid : F68F860D-8364-4C4D-A582-7F0F29A3CB87                                
# 
  set_vacuum_level        52.665000
lattice_vector     16.41702180     -0.00299787      0.00000966
lattice_vector     -8.21087587     14.21585465      0.00000954
lattice_vector      0.00000001      0.00000002     99.97032059
atom      -0.00056340      0.94785632      2.66420319 Mo
atom       1.64161006      1.89482513      4.34277668 Se
atom       1.64165824      1.89482392      0.98563275 Se
atom      -1.64284070      3.79107927      2.66421905 Mo
atom      -0.00050352      4.73799166      4.34277075 Se
atom      -0.00048763      4.73799641      0.98566155 Se
atom      -3.28514556      6.63411611      2.66424515 Mo
atom      -1.64266770      7.58116304      4.34276479 Se
atom      -1.64270189      7.58116652      0.98565597 Se
atom      -4.92730734      9.47744546      2.66424734 Mo
atom      -3.28489945     10.42431902      4.34274902 Se
atom      -3.28493138     10.42431735      0.98564803 Se
atom      -6.56928086     12.32056423      2.66422690 Mo
atom      -4.92709759     13.26751579      4.34277161 Se
atom      -4.92708465     13.26751082      0.98562619 Se
atom       3.28279315      0.94725580      2.66423805 Mo
atom       4.92497862      1.89419682      4.34276253 Se
atom       4.92493451      1.89419225      0.98564391 Se
atom       1.64070333      3.79038975      2.66422724 Mo
atom       3.28282325      4.73741541      4.34274823 Se
atom       3.28282150      4.73741105      0.98564923 Se
atom      -0.00169171      6.63369485      2.66422333 Mo
atom       1.64069792      7.58056194      4.34276780 Se
atom       1.64073750      7.58056305      0.98564603 Se
atom      -1.64373157      9.47684298      2.66423536 Mo
atom      -0.00144149     10.42373819      4.34277034 Se
atom      -0.00142850     10.42374160      0.98566615 Se
atom      -3.28598608     12.31992512      2.66424790 Mo
atom      -1.64368202     13.26689523      4.34275864 Se
atom      -1.64371524     13.26689487      0.98568267 Se
atom       6.56621658      0.94675149      2.66421742 Mo
atom       8.20846481      1.89362993      4.34274907 Se
atom       8.20849521      1.89363043      0.98569036 Se
atom       4.92406757      3.78966723      2.66422709 Mo
atom       6.56623385      4.73679845      4.34276360 Se
atom       6.56620737      4.73679865      0.98569120 Se
atom       3.28179038      6.63294426      2.66424100 Mo
atom       4.92406632      7.57992796      4.34275028 Se
atom       4.92401035      7.57992606      0.98568086 Se
atom       1.63946286      9.47613543      2.66423773 Mo
atom       3.28189451     10.42314094      4.34274258 Se
atom       3.28188956     10.42313754      0.98566508 Se
atom      -0.00264458     12.31947013      2.66423040 Mo
atom       1.63977516     13.26629472      4.34275870 Se
atom       1.63982168     13.26629352      0.98566249 Se
atom       9.84959186      0.94614947      2.66423737 Mo
atom      11.49188589      1.89303464      4.34276783 Se
atom      11.49188576      1.89303005      0.98562347 Se
atom       8.20741821      3.78947446      2.66421512 Mo
atom       9.84967508      4.73617777      4.34277954 Se
atom       9.84972614      4.73617518      0.98563975 Se
atom       6.56557955      6.63255550      2.66420562 Mo
atom       8.20748277      7.57936842      4.34281318 Se
atom       8.20751885      7.57936885      0.98565609 Se
atom       4.92325614      9.47558285      2.66422746 Mo
atom       6.56535242     10.42252372      4.34280485 Se
atom       6.56531770     10.42252645      0.98567052 Se
atom       3.28091850     12.31881343      2.66425082 Mo
atom       4.92318327     13.26571272      4.34278161 Se
atom       4.92312446     13.26571170      0.98565337 Se
atom      13.13269982      0.94540509      2.66423513 Mo
atom      14.77529905      1.89241602      4.34274752 Se
atom      14.77526329      1.89242036      0.98570026 Se
atom      11.49050933      3.78867367      2.66425236 Mo
atom      13.13313325      4.73556105      4.34275062 Se
atom      13.13309405      4.73556147      0.98565753 Se
atom       9.84844157      6.63180108      2.66423639 Mo
atom      11.49090662      7.57879245      4.34273014 Se
atom      11.49092051      7.57878894      0.98567042 Se
atom       8.20643772      9.47497759      2.66420908 Mo
atom       9.84870218     10.42193173      4.34277006 Se
atom       9.84875871     10.42192973      0.98567046 Se
atom       6.56423491     12.31804110      2.66421233 Mo
atom       8.20655448     13.26510661      4.34277097 Se
atom       8.20658527     13.26510952      0.98570845 Se
# 
# What follows is the current estimated Hessian matrix constructed by the BFGS algorithm.
# This is NOT the true Hessian matrix of the system.
# If you do not want this information here, switch it off using the "hessian_to_restart_geometry" keyword.
# 
trust_radius             0.1000000015
hessian_file
