#
# temporary structure-file for finite-difference calculation of forces
# displacement  -0.0025 of \# atom    60 direction     0
#
lattice_vector   15.80271867    0.00000000    0.00000000
lattice_vector   -7.87096434   13.65967927    0.00000000
lattice_vector    0.00000000    0.00000000  100.00000000
atom    3.91992955    7.77007443   49.57344400  Mo
atom    5.45797896    8.65448265   51.18431300   S
atom    5.54533106    8.62889930   48.04795300   S
atom    2.39508320   10.41611644   49.57331300  Mo
atom    3.93243404   11.30108513   51.18438100   S
atom    3.95434323   11.38999379   48.04792300   S
atom    0.82965251   13.18940124   49.65943600  Mo
atom   10.27368276    0.43552972   51.23765400   S
atom   10.27299949    0.46153939   48.10401200   S
atom    7.11649533    2.27683878   49.67702800  Mo
atom    8.69487233    3.18507345   51.24955200   S
atom    8.70116471    3.18861172   48.11599000   S
atom    5.53416098    5.02500069   49.65946700  Mo
atom    7.10787728    5.92986292   51.23754100   S
atom    7.12992364    5.91607840   48.10392200   S
atom    7.11228441    7.74174521   49.65840100  Mo
atom    8.69221006    8.65465941   51.23260000   S
atom    8.71114455    8.64272358   48.09982500   S
atom    5.52659748   10.45665973   49.61773100  Mo
atom    7.10594482   11.36534381   51.20710500   S
atom    7.13777721   11.38378069   48.08271100   S
atom    3.97281728   13.18982919   49.65857500  Mo
atom   13.42704434    0.43731504   51.23277000   S
atom   13.42621234    0.45979956   48.10003000   S
atom   10.27801644    2.27402502   49.68230200  Mo
atom   11.86413908    3.18496417   51.24906600   S
atom   11.85712295    3.18860516   48.11551700   S
atom    8.70091432    5.01104815   49.68221000  Mo
atom   10.28550686    5.92465176   51.24895100   S
atom   10.28520817    5.91658285   48.11540000   S
atom   10.29013567    7.74259334   49.67588800  Mo
atom   -3.91198262    8.65452951   51.23270500   S
atom   -3.93082395    8.64281975   48.10001300   S
atom    8.70954031   10.46912624   49.65829300  Mo
atom   -5.50511074   11.38073075   51.22311800   S
atom   -5.50487105   11.37971775   48.09385500   S
atom    7.13493931   13.20168593   49.65840000  Mo
atom    0.78943666    0.45682489   51.22321100   S
atom    0.78858754    0.45765649   48.09396300   S
atom   13.43963005    2.27673592   49.67611300  Mo
atom   -0.77026564    3.20237125   51.23289800   S
atom   -0.78991197    3.19189974   48.10026400   S
atom   11.86713093    5.01095185   49.68182800  Mo
atom   -2.33975855    5.92929892   51.23705700   S
atom   -2.36203991    5.91626772   48.10355400   S
atom   -2.33469770    7.74159154   49.65853700  Mo
atom   -0.67782894    8.65411084   51.18487800   S
atom   -0.76516299    8.62910816   48.04842100   S
atom   -3.91948435   10.46914236   49.65855500  Mo
atom   -2.31329280   11.36506952   51.20765300   S
atom   -2.34481049   11.38383765   48.08324500   S
atom   -5.50016914   13.20533621   49.65836700  Mo
atom    3.95449110    0.45685016   51.22359000   S
atom    3.95594110    0.45774760   48.09438000   S
atom    0.79618474    2.28533332   49.65872400  Mo
atom    2.37797197    3.22371559   51.20778300   S
atom    2.37829359    3.18705260   48.08338200   S
atom   -0.76885185    5.02431129   49.65874300  Mo
atom    0.85285271    5.99844107   51.18509800   S
atom    0.78713245    5.93502642   48.04851200   S
atom    0.85477787    7.76939308   49.57389000  Mo
atom    2.38940402    8.65070766   47.98954000   S
atom   -0.73634881   10.45650456   49.61833400  Mo
atom    0.86099899   11.29937903   51.18528800   S
atom    0.83823754   11.39021125   48.04831200   S
atom   -2.33261073   13.20161162   49.65907700  Mo
atom    7.11988328    0.43700469   51.23358000   S
atom    7.12073439    0.45979122   48.10104400   S
atom    3.95745595    2.28547470   49.65914000  Mo
atom    5.52612376    3.20293894   51.23360300   S
atom    5.54621268    3.19223221   48.10109100   S
atom    2.38294280    5.04316984   49.61847500  Mo
atom    3.91443259    6.00041175   51.18543900   S
atom    3.98147653    5.93512996   48.04843300   S
