# 
# This is the geometry file that corresponds to the current relaxation step.
# If you do not want this file to be written, set the "write_restart_geometry" flag to .false.
#  aims_uuid : 68EFF1DB-F988-4339-A325-BA146A25B2B0                                
# 
  set_vacuum_level        52.595700
lattice_vector     15.80931190      0.00000000      0.00000000
lattice_vector     -7.90633915     13.69010115      0.00000000
lattice_vector      0.00000000      0.00000000     99.93885963
atom      -0.00648849      0.91665104      2.60905090 W
atom       1.57320327      1.79949266      4.19509549 S
atom       1.58145718      1.82968379      1.04680843 S
atom      -1.56645930      3.67396302      2.61525391 W
atom       0.02166043      4.59633246      4.18994635 S
atom       0.04097072      4.59692684      1.06664877 S
atom      -3.17552957      6.40314752      2.60434585 W
atom      -1.61402268      7.33079957      4.18271875 S
atom      -1.59941135      7.32146361      1.03341332 S
atom      -4.74298089      9.14560195      2.59932266 W
atom      -3.17034883     10.05796748      4.18403956 S
atom      -3.16813466     10.06013775      1.01941756 S
atom      -6.32117054     11.87844043      2.60123990 W
atom      -4.74401541     12.77820642      4.18902847 S
atom      -4.74241176     12.79108919      1.02417263 S
atom       3.16312394      0.90850389      2.61540929 W
atom       4.75335287      1.80872808      4.18924396 S
atom       4.74448323      1.81966131      1.04034531 S
atom       1.62385770      3.64634214      2.64328953 W
atom       3.16206630      4.49076987      4.23005795 S
atom       3.16537025      4.57192062      1.08748690 S
atom       0.00225729      6.45080126      2.62295589 W
atom       1.53662949      7.34197091      4.17619899 S
atom       1.54156692      7.34054296      1.03382402 S
atom      -1.59807305      9.15204592      2.60229994 W
atom      -0.01440463     10.06987025      4.17162608 S
atom      -0.02808520     10.07563022      1.02209789 S
atom      -3.16522928     11.87872245      2.60358268 W
atom      -1.58255316     12.78766270      4.18487147 S
atom      -1.58765574     12.79373619      1.02131015 S
atom       6.33274214      0.91658835      2.60670491 W
atom       7.90760842      1.84596330      4.18013079 S
atom       7.90244791      1.84451078      1.02510602 S
atom       4.70316703      3.64543050      2.61988262 W
atom       6.29885836      4.60444855      4.16199675 S
atom       6.29018629      4.58759279      1.03785924 S
atom       4.74835525      7.31674507      4.11214325 S
atom       4.82082120      7.36199886      0.96968101 S
atom       1.54132489      9.11742927      2.58370490 W
atom       3.16716000     10.01124271      4.13780179 S
atom       3.15621824     10.02722048      1.01452280 S
atom      -0.00644951     11.89272698      2.59930069 W
atom       1.58833595     12.78591249      4.17348535 S
atom       1.58018536     12.79315570      1.01853113 S
atom       9.48673867      0.92786903      2.60024740 W
atom      11.06680918      1.83931686      4.17861396 S
atom      11.06852556      1.84200931      1.02418798 S
atom       7.89220624      3.67376904      2.60063214 W
atom       9.48071539      4.57952214      4.17702934 S
atom       9.48339400      4.57440458      1.02189457 S
atom       6.32153465      6.44951205      2.57946002 W
atom       7.92225385      7.32621685      4.16093182 S
atom       7.93854754      7.32490497      1.01218422 S
atom       4.78120443      9.11554063      2.55957723 W
atom       6.33328481     10.06060153      4.15560280 S
atom       6.35466542     10.08313296      1.00707919 S
atom       3.16163783     11.86420112      2.58839357 W
atom       4.73664949     12.78368189      4.17181936 S
atom       4.74123678     12.79537834      1.01699038 S
atom      12.64868714      0.92804687      2.60145109 W
atom      14.22666223      1.84009351      4.18611169 S
atom      14.23431870      1.85070810      1.03113156 S
atom      11.06757833      3.66620143      2.60250159 W
atom      12.64720628      4.57870718      4.18488982 S
atom      12.65844573      4.57570282      1.02980428 S
atom       9.49976377      6.40280553      2.59549511 W
atom      11.06198153      7.32179380      4.18154139 S
atom      11.07131358      7.32044732      1.01810351 S
atom       7.92151638      9.15180565      2.58652710 W
atom       9.48692150     10.05484642      4.17823898 S
atom       9.49808013     10.06277312      1.01345039 S
atom       6.32960544     11.89232819      2.59350850 W
atom       7.90391644     12.78326326      4.18303890 S
atom       7.91227239     12.79790716      1.01949825 S
# 
# What follows is the current estimated Hessian matrix constructed by the BFGS algorithm.
# This is NOT the true Hessian matrix of the system.
# If you do not want this information here, switch it off using the "hessian_to_restart_geometry" keyword.
# 
trust_radius             0.0099530367
hessian_file
