# 
# This is the geometry file that corresponds to the current relaxation step.
# If you do not want this file to be written, set the "write_restart_geometry" flag to .false.
#  aims_uuid : 3A71528E-D830-44DB-AAF5-5BBE04530A43                                
# 
  set_vacuum_level        52.595700
lattice_vector     15.80931190      0.00000000      0.00000000
lattice_vector     -7.90633915     13.69010115      0.00000000
lattice_vector      0.00000000      0.00000000     99.93885963
atom      -0.00656008      0.91666026      2.60908864 W
atom       1.57316078      1.79937361      4.19521856 S
atom       1.58143969      1.82964765      1.04680486 S
atom      -1.56634106      3.67400218      2.61528426 W
atom       0.02170027      4.59636796      4.18997418 S
atom       0.04108219      4.59691370      1.06672149 S
atom      -3.17546135      6.40320385      2.60435465 W
atom      -1.61401090      7.33086903      4.18276229 S
atom      -1.59940884      7.32151716      1.03337265 S
atom      -4.74293588      9.14560370      2.59933198 W
atom      -3.17036442     10.05793336      4.18411120 S
atom      -3.16816870     10.06011082      1.01934715 S
atom      -6.32107831     11.87845763      2.60125364 W
atom      -4.74398527     12.77827983      4.18901886 S
atom      -4.74238016     12.79117858      1.02422134 S
atom       3.16311957      0.90862444      2.61543477 W
atom       4.75336042      1.80867591      4.18928546 S
atom       4.74447363      1.81969808      1.04033541 S
atom       1.62389222      3.64614858      2.64341061 W
atom       3.16212752      4.49069868      4.23011265 S
atom       3.16542544      4.57208216      1.08772546 S
atom       0.00213222      6.45085033      2.62297201 W
atom       1.53666214      7.34191699      4.17610111 S
atom       1.54150225      7.34048398      1.03379230 S
atom      -1.59814681      9.15214680      2.60229023 W
atom      -0.01437547     10.06982273      4.17154536 S
atom      -0.02809352     10.07558993      1.02208652 S
atom      -3.16524126     11.87859332      2.60359660 W
atom      -1.58258432     12.78771069      4.18482603 S
atom      -1.58771062     12.79376813      1.02134247 S
atom       6.33276120      0.91669584      2.60669068 W
atom       7.90763655      1.84596045      4.18016315 S
atom       7.90249406      1.84452282      1.02507968 S
atom       4.70311167      3.64540705      2.61995639 W
atom       6.29884103      4.60439662      4.16203753 S
atom       6.29015835      4.58751660      1.03784833 S
atom       4.74825145      7.31671034      4.11198526 S
atom       4.82095021      7.36213462      0.96944497 S
atom       1.54141627      9.11739987      2.58362659 W
atom       3.16716588     10.01127555      4.13776167 S
atom       3.15620440     10.02730444      1.01439583 S
atom      -0.00649916     11.89272397      2.59928775 W
atom       1.58836593     12.78588757      4.17344045 S
atom       1.58018905     12.79315760      1.01851791 S
atom       9.48678616      0.92787159      2.60025786 W
atom      11.06685010      1.83928895      4.17864395 S
atom      11.06858179      1.84197852      1.02417556 S
atom       7.89219568      3.67374560      2.60063886 W
atom       9.48069400      4.57955908      4.17704077 S
atom       9.48337395      4.57446764      1.02189743 S
atom       6.32155674      6.44942516      2.57940712 W
atom       7.92219128      7.32616551      4.16096033 S
atom       7.93857817      7.32488638      1.01215085 S
atom       4.78106667      9.11552094      2.55947356 W
atom       6.33325092     10.06055539      4.15549101 S
atom       6.35472132     10.08317619      1.00712793 S
atom       3.16170344     11.86421916      2.58835972 W
atom       4.73658486     12.78364916      4.17189975 S
atom       4.74121297     12.79541360      1.01690525 S
atom      12.64874336      0.92796605      2.60147612 W
atom      14.22661788      1.84010602      4.18612706 S
atom      14.23429103      1.85073891      1.03114950 S
atom      11.06744441      3.66610605      2.60250885 W
atom      12.64717583      4.57871099      4.18484417 S
atom      12.65844217      4.57567830      1.02990766 S
atom       9.49980441      6.40290259      2.59551806 W
atom      11.06198592      7.32181061      4.18156552 S
atom      11.07131442      7.32045183      1.01810944 S
atom       7.92152439      9.15164908      2.58652453 W
atom       9.48689675     10.05482448      4.17822547 S
atom       9.49806612     10.06278847      1.01346930 S
atom       6.32950804     11.89246276      2.59350951 W
atom       7.90391687     12.78321081      4.18300673 S
atom       7.91230208     12.79791673      1.01955919 S
# 
# What follows is the current estimated Hessian matrix constructed by the BFGS algorithm.
# This is NOT the true Hessian matrix of the system.
# If you do not want this information here, switch it off using the "hessian_to_restart_geometry" keyword.
# 
trust_radius             0.0004533433
hessian_file
