# 
# This is the geometry file that corresponds to the current relaxation step.
# If you do not want this file to be written, set the "write_restart_geometry" flag to .false.
#  aims_uuid : D2C0F9DA-9C58-4214-A3EA-C19F95ACCBAF                                
# 
  set_vacuum_level        52.665000
lattice_vector     16.60000000      0.00000000      0.00000000
lattice_vector     -8.30000000     14.37602170      0.00000000
lattice_vector      0.00000000      0.00000000    100.00000000
atom      -0.01206640      0.95428403      2.65232859 Mo
atom       1.64297564      1.89652146      4.33771884 Se
atom       1.65584377      1.92065937      1.00282384 Se
atom      -1.66635101      3.84328398      2.64306510 Mo
atom      -0.00971484      4.79887062      4.33150842 Se
atom       0.01989612      4.86100299      0.99930341 Se
atom      -3.31774757      6.72247472      2.63670336 Mo
atom      -1.65415196      7.64903820      4.34249461 Se
atom      -1.62169432      7.67453117      0.97170631 Se
atom      -4.97515946      9.58045131      2.65200700 Mo
atom      -3.30389012     10.53311109      4.31085551 Se
atom      -3.29726502     10.52928200      0.99965309 Se
atom      -6.64095391     12.45973239      2.65068462 Mo
atom      -4.98238817     13.39718523      4.32442275 Se
atom      -4.97915320     13.41845880      0.98952326 Se
atom       3.31510290      0.94414774      2.67278535 Mo
atom       4.98288567      1.82745968      4.36762959 Se
atom       4.96379097      1.94367395      1.02577953 Se
atom       1.63521654      3.82248096      2.68355740 Mo
atom       3.31158080      4.63927773      4.43439660 Se
atom       3.29125560      4.92744230      1.18313282 Se
atom      -0.03780978      6.73221304      2.69964897 Mo
atom       2.07641587      7.42684870      3.66250053 Se
atom      -1.61932425      9.56055561      2.65956527 Mo
atom       0.01862360     10.54652573      4.34255132 Se
atom       0.01282565     10.50566284      0.97170255 Se
atom      -3.31450067     12.45679343      2.65199577 Mo
atom      -1.65526882     13.40224703      4.32012662 Se
atom      -1.66588270     13.41960815      0.97821914 Se
atom       6.64045892      0.94589867      2.66013949 Mo
atom       8.29433414      1.90919148      4.33278026 Se
atom       8.27668872      1.95022984      1.00022242 Se
atom       4.93258706      3.78598181      2.78120544 Mo
atom       6.62818209      4.79882833      4.40784902 Se
atom       6.55659195      4.84014768      1.11336222 Se
atom       5.10816116      7.75100034      4.43467430 Se
atom       4.84811082      7.62421802      1.18334964 Se
atom       1.62080406      9.60526806      2.69974941 Mo
atom       3.30918397     10.54751220      4.33159815 Se
atom       3.27020085     10.49069127      0.99932782 Se
atom      -0.01066690     12.45044076      2.63670982 Mo
atom       1.65145224     13.42255946      4.30220429 Se
atom       1.64807019     13.42547416      0.98011716 Se
atom       9.94524847      0.96886759      2.64634714 Mo
atom      11.61162500      1.92164806      4.30770203 Se
atom      11.60604705      1.92487554      0.97790149 Se
atom       8.27513105      3.84798084      2.69843343 Mo
atom       9.96376295      4.80071914      4.33280475 Se
atom       9.91941101      4.79549647      1.00023372 Se
atom       6.65745274      6.77369555      2.78124437 Mo
atom       8.37876627      7.70937150      4.36767684 Se
atom       8.26857761      7.66778036      1.02581783 Se
atom       4.97717189      9.61101642      2.68367369 Mo
atom       6.64902466     10.56730108      4.33775592 Se
atom       6.63450081     10.54400994      1.00286737 Se
atom       3.30839322     12.45988630      2.64307160 Mo
atom       4.96425354     13.42656392      4.31072672 Se
atom       4.97186105     13.41545693      0.97825772 Se
atom      13.27008823      0.96414215      2.64071601 Mo
atom      14.92440134      1.92597070      4.31073554 Se
atom      14.93782780      1.92493454      0.97825193 Se
atom      11.60358500      3.84117333      2.64635568 Mo
atom      13.27149936      4.79695625      4.30219708 Se
atom      13.26728333      4.79843018      0.98012821 Se
atom       9.97101900      6.71464620      2.66017140 Mo
atom      11.63566952      7.67078941      4.32014110 Se
atom      11.61531889      7.67130432      0.97823684 Se
atom       8.30985596      9.59534866      2.67281637 Mo
atom       9.97647506     10.55467516      4.32444529 Se
atom       9.95966146     10.54122565      0.98953009 Se
atom       6.63750491     12.47169414      2.65232733 Mo
atom       8.29622882     13.41977016      4.31854301 Se
atom       8.29720378     13.41920321      0.98170991 Se
# 
# What follows is the current estimated Hessian matrix constructed by the BFGS algorithm.
# This is NOT the true Hessian matrix of the system.
# If you do not want this information here, switch it off using the "hessian_to_restart_geometry" keyword.
# 
trust_radius             0.0024614008
hessian_file
