# 
# This is the geometry file that corresponds to the current relaxation step.
# If you do not want this file to be written, set the "write_restart_geometry" flag to .false.
#  aims_uuid : 10175541-E8B7-46A2-A046-CB664B1E0D60                                
# 
  set_vacuum_level        52.992975
lattice_vector     16.44347560      0.00000000      0.00000000
lattice_vector     -8.22357185     14.23911350      0.00000000
lattice_vector      0.00000000      0.00000000     99.63748923
atom       0.04213032      1.01040637      2.70715316 W
atom       1.67952776      1.89687259      4.43386411 Se
atom       1.70190284      2.00576996      1.05493394 Se
atom      -1.58059583      3.87994795      2.74234837 W
atom       0.04747353      4.82214370      4.47009190 Se
atom       0.12089803      4.86458972      1.12782452 Se
atom      -3.25852436      6.72091624      2.70745819 W
atom      -1.67642725      7.69785077      4.43600516 Se
atom      -1.57242266      7.66266742      1.05321833 Se
atom      -4.89689377      9.56478946      2.68180736 W
atom      -3.27401328     10.52110911      4.39008149 Se
atom      -3.24131810     10.51452879      1.00856059 Se
atom      -6.53847076     12.40868210      2.68171225 W
atom      -4.89921249     13.33818341      4.38953138 Se
atom      -4.88838749     13.36941484      1.00886280 Se
atom       3.33550540      1.00858501      2.72160540 W
atom       4.99078222      1.94905433      4.40664933 Se
atom       4.97398887      1.93829794      1.01343417 Se
atom       1.73089981      3.84254350      2.82544880 W
atom       3.34376080      4.70913548      4.49637590 Se
atom       3.37929837      4.95980143      1.21469194 Se
atom       0.03025473      6.76965987      2.82398249 W
atom       1.58507053      7.73849009      4.50040752 Se
atom       1.80978086      7.63278029      1.21149228 Se
atom      -1.61605986      9.57535423      2.72180865 W
atom       0.02440581     10.54102063      4.40706995 Se
atom       0.00919780     10.52741513      1.01363581 Se
atom      -3.24966445     12.41242427      2.69648695 W
atom      -1.60457898     13.36169250      4.38942130 Se
atom      -1.60732343     13.36055104      1.00347525 Se
atom       6.62908276      1.01182959      2.69724394 W
atom       8.27171053      1.98364373      4.37280515 Se
atom       8.26592428      1.96013046      0.99568288 Se
atom       4.98043966      3.82527246      2.69598398 W
atom       6.60255929      4.86139989      4.32819216 Se
atom       6.60348967      4.79242679      0.95956760 Se
atom       4.76080719      7.52845728      4.04323239 Se
atom       5.11881174      7.74515707      0.75342853 Se
atom       1.64133419      9.58416872      2.70010208 W
atom       3.36099770     10.46413486      4.32127701 Se
atom       3.29603534     10.50347140      0.95908067 Se
atom       0.03591195     12.42468222      2.69639989 W
atom       1.70285279     13.35533022      4.37170625 Se
atom       1.67909707     13.36361398      0.99529279 Se
atom       9.91302717      1.02048570      2.68718358 W
atom      11.55623870      1.96952399      4.37623927 Se
atom      11.56247064      1.97327658      1.00165515 Se
atom       8.26099906      3.87275949      2.66594274 W
atom       9.89884809      4.82496803      4.36001474 Se
atom       9.92397592      4.80866136      0.98269319 Se
atom       6.61875293      6.72984417      2.57548498 W
atom       8.23106583      7.66403475      4.30390413 Se
atom       8.30785632      7.66846394      0.93279032 Se
atom       4.98812081      9.54102230      2.56245746 W
atom       6.59618060     10.47832379      4.29972949 Se
atom       6.64689977     10.55063584      0.93227757 Se
atom       3.33301434     12.40053195      2.66443627 W
atom       4.97510352     13.34475104      4.35984099 Se
atom       4.97487787     13.37502954      0.98289534 Se
atom      13.20475326      1.02245145      2.68975398 W
atom      14.84027303      1.95548695      4.39951923 Se
atom      14.86118475      1.99979612      1.02525536 Se
atom      11.56001480      3.87138666      2.68970971 W
atom      13.18481360      4.82243909      4.39951010 Se
atom      13.23355638      4.81876346      1.02540785 Se
atom       9.91750740      6.71411210      2.65934759 W
atom      11.52166679      7.67081747      4.37563243 Se
atom      11.57498609      7.66747950      0.98937820 Se
atom       8.26729529      9.56523669      2.62461756 W
atom       9.88258297     10.49971832      4.35466193 Se
atom       9.92991880     10.52685339      0.97166756 Se
atom       6.62248181     12.41966875      2.66002730 W
atom       8.25258397     13.33321553      4.37581856 Se
atom       8.27631037     13.38123520      0.98970279 Se
# 
# What follows is the current estimated Hessian matrix constructed by the BFGS algorithm.
# This is NOT the true Hessian matrix of the system.
# If you do not want this information here, switch it off using the "hessian_to_restart_geometry" keyword.
# 
trust_radius             0.0180797369
hessian_file
