# 
# This is the geometry file that corresponds to the current relaxation step.
# If you do not want this file to be written, set the "write_restart_geometry" flag to .false.
#  aims_uuid : EFF7EDD2-3D44-4E63-A582-36E8EB5FE9CF                                
# 
  set_vacuum_level        52.992975
lattice_vector     16.44347560      0.00000000      0.00000000
lattice_vector     -8.22357185     14.23911350      0.00000000
lattice_vector      0.00000000      0.00000000     99.63748923
atom       0.04291282      1.01235350      2.70611843 W
atom       1.68101028      1.90344208      4.43061385 Se
atom       1.70281284      2.01029636      1.05324795 Se
atom      -1.57990780      3.87901650      2.74184033 W
atom       0.04789891      4.82349529      4.46834187 Se
atom       0.11870843      4.86750064      1.12651048 Se
atom      -3.26053320      6.72135516      2.70847847 W
atom      -1.68102025      7.69913097      4.43828401 Se
atom      -1.57815843      7.66498460      1.05351034 Se
atom      -4.89827941      9.56563114      2.68216701 W
atom      -3.27709689     10.52358460      4.39091098 Se
atom      -3.24298833     10.51633145      1.00947446 Se
atom      -6.53865345     12.41039978      2.68152249 W
atom      -4.89998239     13.34253507      4.38865018 Se
atom      -4.88904969     13.37144549      1.00842738 Se
atom       3.33627669      1.01237903      2.71947345 W
atom       4.98970022      1.95605301      4.40476183 Se
atom       4.97615986      1.93905221      1.01064642 Se
atom       1.73386294      3.85000284      2.82186319 W
atom       3.34292570      4.72785609      4.48358337 Se
atom       3.39033913      4.96618508      1.20692064 Se
atom       0.02260156      6.77129929      2.82383432 W
atom       1.57213259      7.74701518      4.51010308 Se
atom       1.79519069      7.62919603      1.21451261 Se
atom      -1.61976743      9.57669023      2.72372207 W
atom       0.01868260     10.54545736      4.40930911 Se
atom       0.00720595     10.52641220      1.01605953 Se
atom      -3.25098348     12.41463504      2.69680144 W
atom      -1.60622664     13.36444375      4.38965609 Se
atom      -1.60794924     13.36191604      1.00385637 Se
atom       6.62918008      1.01401760      2.69708638 W
atom       8.27397553      1.98085585      4.37339851 Se
atom       8.26826493      1.95762030      0.99576396 Se
atom       4.98769078      3.82893210      2.68899168 W
atom       6.60934845      4.85563118      4.33172280 Se
atom       6.61178092      4.79247967      0.95795875 Se
atom       4.76855679      7.51521307      4.04268635 Se
atom       5.11827807      7.74082301      0.75617239 Se
atom       1.63422168      9.58051393      2.70697417 W
atom       3.36193338     10.45658723      4.31953891 Se
atom       3.29167435     10.49703615      0.96174956 Se
atom       0.03376205     12.42555563      2.69682171 W
atom       1.70369210     13.35199191      4.37166702 Se
atom       1.68012004     13.36038987      0.99604439 Se
atom       9.91466443      1.01784706      2.68738352 W
atom      11.55749412      1.96773540      4.37642064 Se
atom      11.56367591      1.97125068      1.00185855 Se
atom       8.26495742      3.86983449      2.66629802 W
atom       9.90150957      4.82385358      4.36018731 Se
atom       9.92684249      4.80704419      0.98238216 Se
atom       6.62840272      6.72250120      2.58445911 W
atom       8.23722013      7.66438072      4.30746118 Se
atom       8.30585366      7.66729858      0.93281147 Se
atom       4.98981220      9.53125881      2.55594133 W
atom       6.59357860     10.47363913      4.29809909 Se
atom       6.64838071     10.55055785      0.93236559 Se
atom       3.33392514     12.39611071      2.66499510 W
atom       4.97522810     13.34214900      4.36035178 Se
atom       4.97484217     13.37182570      0.98379096 Se
atom      13.20540058      1.02030527      2.69005258 W
atom      14.84134244      1.95476352      4.39917667 Se
atom      14.86083419      1.99889362      1.02468091 Se
atom      11.56178368      3.86976660      2.69001770 W
atom      13.18578547      4.82131676      4.39976783 Se
atom      13.23396904      4.81878619      1.02586848 Se
atom       9.91738872      6.71321556      2.65896021 W
atom      11.52016570      7.67103869      4.37610196 Se
atom      11.57393479      7.66779701      0.98964139 Se
atom       8.26749438      9.56439326      2.62507769 W
atom       9.88144557     10.50123071      4.35472766 Se
atom       9.92920532     10.52755308      0.97200447 Se
atom       6.62291923     12.41843296      2.66092723 W
atom       8.25291397     13.33488221      4.37548921 Se
atom       8.27612585     13.38196393      0.98991187 Se
# 
# What follows is the current estimated Hessian matrix constructed by the BFGS algorithm.
# This is NOT the true Hessian matrix of the system.
# If you do not want this information here, switch it off using the "hessian_to_restart_geometry" keyword.
# 
trust_radius             0.0012147758
hessian_file
