# 
# This is the geometry file that corresponds to the current relaxation step.
# If you do not want this file to be written, set the "write_restart_geometry" flag to .false.
#  aims_uuid : 5160302F-F328-4008-AAB4-7CC13C1D1A0E                                
# 
  set_vacuum_level       103.288256
lattice_vector     16.31232095      0.00000000      0.00000000
lattice_vector     -8.15665875     14.12581815      0.00000000
lattice_vector      0.00000000      0.00000000    103.32585319
atom      -0.00911964      0.94209270     51.65646816 Mo
atom       1.63856391      1.94326451     53.27892080 Se
atom       1.61752160      1.87074814     49.97218602 Se
atom      -1.61969913      3.76922160     51.66448953 Mo
atom       0.05828997      4.81066991     53.27500188 Se
atom      -0.03040438      4.69194029     49.93734184 Se
atom      -3.26045171      6.60165609     51.65239602 Mo
atom      -1.57302986      7.55750301     53.27818050 Se
atom      -1.66635993      7.51141790     49.91916227 Se
atom      -4.89415173      9.40968333     51.62782130 Mo
atom      -3.23816736     10.34578031     53.26975762 Se
atom      -3.26907034     10.36676746     49.96510569 Se
atom      -6.52761529     12.24925505     51.63372108 Mo
atom      -4.89424316     13.19325298     53.29634605 Se
atom      -4.89425265     13.19452744     49.97366485 Se
atom       3.26235703      0.95365199     51.63482047 Mo
atom       4.88615045      1.94317855     53.27893297 Se
atom       4.90716798      1.87066554     49.97214598 Se
atom       1.64355752      3.81573847     51.57748987 Mo
atom       3.26237517      4.99682531     53.04518166 Se
atom       3.26232920      4.65713257     49.85933084 Se
atom      -0.04400982      6.61280071     51.53804886 Mo
atom       1.77206923      7.41861068     50.18669523 Se
atom      -1.60310748      9.40248209     51.59266847 Mo
atom       0.04895459     10.28096757     53.24826519 Se
atom      -0.01495659     10.39973587     49.88943042 Se
atom      -3.26085383     12.24925303     51.63371358 Mo
atom      -1.63038482     13.17139801     53.30862387 Se
atom      -1.62682311     13.19670829     49.98178382 Se
atom       6.53383837      0.94206310     51.65643804 Mo
atom       8.14054452      1.88865337     53.33919141 Se
atom       8.17440886      1.87768483     50.00992068 Se
atom       4.88111353      3.81560359     51.57748344 Mo
atom       6.46628335      4.81047144     53.27503662 Se
atom       6.55493284      4.69181261     49.93732268 Se
atom       4.75212175      7.41842039     50.18664708 Se
atom       1.59496274      9.42252881     51.47172631 Mo
atom       3.26193560     10.10659700     53.22467108 Se
atom       3.26196650     10.38502987     49.87036641 Se
atom      -0.00235453     12.22572732     51.63984407 Mo
atom       1.63672912     13.13018890     53.31978779 Se
atom       1.64625118     13.18950350     50.01047119 Se
atom       9.78830721      0.93283413     51.68954632 Mo
atom      11.41848687      1.87415572     53.35770558 Se
atom      11.41850236      1.87766605     50.03356317 Se
atom       8.14425692      3.76915515     51.66447276 Mo
atom       9.77041962      4.72333687     53.33028773 Se
atom       9.79570943      4.69067886     50.01726254 Se
atom       6.56822877      6.61257811     51.53806838 Mo
atom       8.09721009      7.55739542     53.27816254 Se
atom       8.19054190      7.51133301     49.91919077 Se
atom       4.92891730      9.42246910     51.47171018 Mo
atom       6.47497936     10.28087470     53.24823902 Se
atom       6.53890039     10.39966747     49.88945639 Se
atom       3.26192720     12.18991450     51.64608971 Mo
atom       4.88708319     13.13018875     53.31980148 Se
atom       4.87757861     13.18951207     50.01047586 Se
atom      13.04871250      0.93286535     51.68956250 Mo
atom      14.69645857      1.88869696     53.33920858 Se
atom      14.66260266      1.87773044     50.00994327 Se
atom      11.41842880      3.76350666     51.69077212 Mo
atom      13.06639259      4.72337339     53.33029006 Se
atom      13.04112415      4.69070671     50.01727972 Se
atom       9.78471042      6.60161389     51.65238078 Mo
atom      11.41826650      7.54659650     53.31323950 Se
atom      11.41826303      7.52056506     49.97939865 Se
atom       8.12712834      9.40240909     51.59267749 Mo
atom       9.76214215     10.34575999     53.26975660 Se
atom       9.79303373     10.36674025     49.96510782 Se
atom       6.52616390     12.22570086     51.63984394 Mo
atom       8.15419836     13.17138786     53.30862630 Se
atom       8.15063481     13.19670568     49.98179521 Se
# 
# What follows is the current estimated Hessian matrix constructed by the BFGS algorithm.
# This is NOT the true Hessian matrix of the system.
# If you do not want this information here, switch it off using the "hessian_to_restart_geometry" keyword.
# 
trust_radius             0.0002481630
hessian_file
