# 
# This is the geometry file that corresponds to the current relaxation step.
# If you do not want this file to be written, set the "write_restart_geometry" flag to .false.
#  aims_uuid : 09E71B2E-7435-40C9-A27A-44E305FB7864                                
# 
  set_vacuum_level       103.288256
lattice_vector     16.31232095      0.00000000      0.00000000
lattice_vector     -8.15665875     14.12581815      0.00000000
lattice_vector      0.00000000      0.00000000    103.32585319
atom      -0.00972477      0.94142664     51.64474125 Mo
atom       1.63029898      1.90055185     53.28577906 Se
atom       1.61582582      1.86960141     49.96362251 Se
atom      -1.63354326      3.77996624     51.65220819 Mo
atom       0.03070854      4.79350548     53.28762256 Se
atom      -0.00624337      4.71821126     49.96313506 Se
atom      -3.24917714      6.60215671     51.65765148 Mo
atom      -1.57313425      7.54672945     53.31392025 Se
atom      -1.62105659      7.51617341     49.95018985 Se
atom      -4.88991970      9.41381496     51.64345016 Mo
atom      -3.24162088     10.34548542     53.29239439 Se
atom      -3.25268578     10.35208180     49.98401664 Se
atom      -6.52746043     12.24248133     51.64558666 Mo
atom      -4.89400699     13.18692324     53.30259476 Se
atom      -4.89749357     13.16612669     49.97603337 Se
atom       3.25944257      0.93176971     51.62360050 Mo
atom       4.87525229      1.91819934     53.26750535 Se
atom       4.89828448      1.80116130     49.93469720 Se
atom       1.61510378      3.77301850     51.60747019 Mo
atom       3.22350811      4.88072405     53.10764826 Se
atom       3.26012287      4.57769377     49.85823283 Se
atom      -0.01129122      6.63221602     51.57879707 Mo
atom       2.00361321      7.31768924     50.45714802 Se
atom      -1.59704765      9.39625275     51.62995533 Mo
atom       0.01707162     10.30012394     53.31366096 Se
atom       0.01874262     10.35725610     49.94970955 Se
atom      -3.25879875     12.23886989     51.64368389 Mo
atom      -1.63359138     13.17981552     53.31234189 Se
atom      -1.62343660     13.16692134     49.98325594 Se
atom       6.52512392      0.93136807     51.63826259 Mo
atom       8.13334578      1.91346526     53.29699844 Se
atom       8.15276893      1.87308171     49.97086225 Se
atom       4.84423505      3.73138245     51.51701998 Mo
atom       6.44156825      4.75600458     53.18229233 Se
atom       6.51817542      4.71099535     49.89183899 Se
atom       4.72243564      7.47784556     53.10356082 Se
atom       5.00836664      7.60239367     49.85202766 Se
atom       1.58946487      9.40519954     51.57789559 Mo
atom       3.20370884     10.28722000     53.28614651 Se
atom       3.24940469     10.35813011     49.96161113 Se
atom      -0.00332418     12.22393861     51.65751364 Mo
atom       1.62106040     13.18256969     53.31506360 Se
atom       1.62555388     13.18611867     49.99747733 Se
atom       9.77415306      0.94791107     51.65396215 Mo
atom      11.40670042      1.88913261     53.31915218 Se
atom      11.41188114      1.88615803     49.99684571 Se
atom       8.13386597      3.77853167     51.60228568 Mo
atom       9.74883886      4.71185649     53.29676318 Se
atom       9.79354545      4.71473913     49.97065654 Se
atom       6.52945594      6.65075907     51.51562105 Mo
atom       8.11522447      7.53066446     53.26609845 Se
atom       8.22870556      7.56914865     49.93374936 Se
atom       4.87916401      9.42609496     51.60456432 Mo
atom       6.50759788     10.34857920     53.28424074 Se
atom       6.52852503     10.37833842     49.96238548 Se
atom       3.24868909     12.23593082     51.65148224 Mo
atom       4.88337794     13.17405429     53.31594050 Se
atom       4.87759632     13.19059788     49.99070177 Se
atom      13.04190496      0.94516260     51.65940855 Mo
atom      14.68359955      1.89497709     53.31628769 Se
atom      14.66680826      1.89221905     49.99110880 Se
atom      11.40553166      3.77354382     51.65395633 Mo
atom      13.04475335      4.71620311     53.31532749 Se
atom      13.04459913      4.71034157     49.99775684 Se
atom       9.79532921      6.59540864     51.63770325 Mo
atom      11.41983140      7.53595463     53.31213082 Se
atom      11.43667961      7.53352846     49.98300588 Se
atom       8.16209420      9.42327029     51.62246257 Mo
atom       9.78334074     10.35545251     53.30221792 Se
atom       9.80036647     10.36948017     49.97550645 Se
atom       6.51889634     12.24934588     51.64430335 Mo
atom       8.15141800     13.18513943     53.31036160 Se
atom       8.14987014     13.18662356     49.98309452 Se
# 
# What follows is the current estimated Hessian matrix constructed by the BFGS algorithm.
# This is NOT the true Hessian matrix of the system.
# If you do not want this information here, switch it off using the "hessian_to_restart_geometry" keyword.
# 
trust_radius             0.0009725512
hessian_file
