# 
# This is the geometry file that corresponds to the current relaxation step.
# If you do not want this file to be written, set the "write_restart_geometry" flag to .false.
#  aims_uuid : 457FA133-AA5D-4924-AE76-3F10E7660BC9                                
# 
  set_vacuum_level       103.288256
lattice_vector     16.31232095      0.00000000      0.00000000
lattice_vector     -8.15665875     14.12581815      0.00000000
lattice_vector      0.00000000      0.00000000    103.32585319
atom      -0.00971834      0.94142564     51.64478620 Mo
atom       1.63029498      1.90045412     53.28594095 Se
atom       1.61586121      1.86970289     49.96381108 Se
atom      -1.63350144      3.77996018     51.65229073 Mo
atom       0.03055894      4.79345309     53.28784141 Se
atom      -0.00617063      4.71821856     49.96334587 Se
atom      -3.24913323      6.60216026     51.65769848 Mo
atom      -1.57320294      7.54678603     53.31396659 Se
atom      -1.62100660      7.51614762     49.95026935 Se
atom      -4.88990404      9.41380224     51.64341666 Mo
atom      -3.24162796     10.34539896     53.29237315 Se
atom      -3.25267665     10.35210420     49.98395991 Se
atom      -6.52742672     12.24249172     51.64558367 Mo
atom      -4.89403212     13.18689498     53.30264037 Se
atom      -4.89740161     13.16621764     49.97604856 Se
atom       3.25935845      0.93171359     51.62372599 Mo
atom       4.87525702      1.91813808     53.26763196 Se
atom       4.89823503      1.80113530     49.93480512 Se
atom       1.61504938      3.77305244     51.60778891 Mo
atom       3.22340182      4.88046129     53.10814584 Se
atom       3.26020138      4.57820275     49.85899075 Se
atom      -0.01132320      6.63218072     51.57888003 Mo
atom       2.00368093      7.31766691     50.45736197 Se
atom      -1.59708661      9.39630691     51.62995288 Mo
atom       0.01709012     10.30009958     53.31361845 Se
atom       0.01870076     10.35727624     49.94966726 Se
atom      -3.25880314     12.23885002     51.64373414 Mo
atom      -1.63358392     13.17981002     53.31230066 Se
atom      -1.62349255     13.16693651     49.98324644 Se
atom       6.52522039      0.93135281     51.63834359 Mo
atom       8.13339002      1.91345499     53.29704494 Se
atom       8.15267600      1.87306422     49.97081869 Se
atom       4.84426295      3.73130077     51.51719197 Mo
atom       6.44162558      4.75608378     53.18227794 Se
atom       6.51808276      4.71099280     49.89191759 Se
atom       4.72234803      7.47769751     53.10319359 Se
atom       5.00869527      7.60266742     49.85138847 Se
atom       1.58946232      9.40521293     51.57781823 Mo
atom       3.20384911     10.28719424     53.28600995 Se
atom       3.24938229     10.35811206     49.96145781 Se
atom      -0.00331068     12.22393950     51.65750445 Mo
atom       1.62113677     13.18258353     53.31501889 Se
atom       1.62556854     13.18611719     49.99742193 Se
atom       9.77402548      0.94792079     51.65385418 Mo
atom      11.40668044      1.88907258     53.31907415 Se
atom      11.41193014      1.88611707     49.99684399 Se
atom       8.13388493      3.77857256     51.60227324 Mo
atom       9.74880262      4.71190636     53.29674566 Se
atom       9.79351620      4.71470947     49.97061662 Se
atom       6.52949648      6.65073935     51.51551546 Mo
atom       8.11519542      7.53068898     53.26590911 Se
atom       8.22868057      7.56914314     49.93366866 Se
atom       4.87915638      9.42600049     51.60427140 Mo
atom       6.50752201     10.34847255     53.28404492 Se
atom       6.52856074     10.37843452     49.96231056 Se
atom       3.24863144     12.23587786     51.65140193 Mo
atom       4.88333843     13.17401500     53.31585048 Se
atom       4.87751794     13.19057478     49.99064853 Se
atom      13.04189772      0.94513411     51.65934402 Mo
atom      14.68353530      1.89492228     53.31630502 Se
atom      14.66684072      1.89232695     49.99115001 Se
atom      11.40552184      3.77353547     51.65393024 Mo
atom      13.04468634      4.71618815     53.31535737 Se
atom      13.04459928      4.71028472     49.99771465 Se
atom       9.79535998      6.59539413     51.63760498 Mo
atom      11.41975034      7.53597131     53.31206792 Se
atom      11.43674626      7.53355764     49.98299575 Se
atom       8.16215152      9.42338330     51.62230104 Mo
atom       9.78325473     10.35543377     53.30218658 Se
atom       9.80042551     10.36947505     49.97543235 Se
atom       6.51900810     12.24938235     51.64423247 Mo
atom       8.15141324     13.18506615     53.31035098 Se
atom       8.14985708     13.18668507     49.98307177 Se
# 
# What follows is the current estimated Hessian matrix constructed by the BFGS algorithm.
# This is NOT the true Hessian matrix of the system.
# If you do not want this information here, switch it off using the "hessian_to_restart_geometry" keyword.
# 
trust_radius             0.0019451024
hessian_file
