##### Physical settings  ################
xc                 pbe
spin               none
charge      0.0
relativistic       atomic_zora scalar
#elsi_restart read 
# SCF settings
#use_symmetric_forces .true.
relax_geometry trm 1E-3

relax_unit_cell full
#vdw_correction_hirshfeld
harmonic_length_scale 0.09
energy_tolerance  1E-3
occupation_type gaussian       0.01 
# k-grid settings  (to be adjusted)
k_grid  12 12 12
#empty_states 8
#use_dipole_correction
#include_spin_orbit non_self_consistent

mixer   pulay
n_max_pulay        12 # high for metal
charge_mix_param   0.1 #low for metal
many_body_dispersion_nl    beta=0.81 
################################################################################
#
#  FHI-aims code project
# Volker Blum, Fritz Haber Institute Berlin, 2009
#
#  Suggested "tight" defaults for S atom (to be pasted into control.in file)
#
#  Revised Jan 04, 2011, following tests (SiC) done by Lydia Nemec: 
#     d and g functions of tier 2 now enabled by default.
#
################################################################################
  species        S
#     global species definitions
    nucleus             16
    mass                32.065
#
    l_hartree           6
#
    cut_pot             4.0          2.0  1.0
    basis_dep_cutoff    1e-4
#
    radial_base         44 7.0
    radial_multiplier   2
    angular_grids       specified
      division   0.4665  110
      division   0.5810  194
      division   0.7139  302
      division   0.8274  434
#      division   0.9105  590
#      division   1.0975  770
#      division   1.2028  974
#      outer_grid  974
      outer_grid  434
################################################################################
#
#  Definition of "minimal" basis
#
################################################################################
#     valence basis states
    valence      3  s   2.
    valence      3  p   4.
#     ion occupancy
    ion_occ      3  s   1.
    ion_occ      3  p   3.
################################################################################
#
#  Suggested additional basis functions. For production calculations, 
#  uncomment them one after another (the most important basis functions are
#  listed first).
#
#  Constructed for dimers: 1.6 A, 1.9 A, 2.5 A, 3.25 A, 4.0 A
#
################################################################################
#  "First tier" - improvements: -652.81 meV to -45.53 meV
     ionic 3 d auto
     hydro 2 p 1.8
     hydro 4 f 7
     ionic 3 s auto
#  "Second tier" - improvements: -30.20 meV to -1.74 meV
     hydro 4 d 6.2
     hydro 5 g 10.8
#     hydro 4 p 4.9
#     hydro 5 f 10
#     hydro 1 s 0.8
#  "Third tier" - improvements: -1.04 meV to -0.20 meV
#     hydro 3 d 3.9
#     hydro 3 d 2.7
#     hydro 5 g 12
#     hydro 4 p 10.4
#     hydro 5 f 12.4
#     hydro 2 s 1.9
#  "Fourth tier" - improvements: -0.35 meV to -0.06 meV
#     hydro 4 d 10.4
#     hydro 4 p 7.2
#     hydro 4 d 10
#     hydro 5 g 19.2
#     hydro 4 s 12

################################################################################
#
# For methods that use the localized form of the "resolution of identity" for
# the two-electron Coulomb operator (RI_method LVL), particularly Hartree-Fock and
# hybrid density functional calculations, the highest accuracy can be obtained by
# uncommenting the line beginning with "for_aux"  below, thus adding an extra g radial
# function to the construction of the product basis set for the expansion.
# See Ref. New J. Phys. 17, 093020 (2015) for more information, particularly Figs. 1 and 6.
#
################################################################################
#
# for_aux hydro 5 g 6.0
################################################################################
#
#  FHI-aims code project
# Volker Blum, Fritz Haber Institute Berlin, 2009
#
#  Suggested "tight" defaults for Mo atom (to be pasted into control.in file)
#
################################################################################
  species        Mo
#     global species definitions
    nucleus             42
    mass                95.94
#
    l_hartree           6
#
    cut_pot             4.0  2.0  1.0
    basis_dep_cutoff    1e-4
#
    radial_base         59 7.0
    radial_multiplier   2
    angular_grids specified
      division   0.3117   50
      division   0.6750  110
      division   1.0351  194
      division   1.2073  302
      division   1.6402  434
#      division   1.9185  590
#      division   2.0237  770
#      division   2.0980  974
#      division   2.7972 1202
#      outer_grid  974
      outer_grid  434
################################################################################
#
#  Definition of "minimal" basis
#
################################################################################
#     valence basis states
    valence      5  s   1.
    valence      4  p   6.
    valence      4  d   5.
#     ion occupancy
    ion_occ     5  s   0.
    ion_occ     4  p   6.
    ion_occ     4  d   4.
################################################################################
#
#  Suggested additional basis functions. For production calculations, 
#  uncomment them one after another (the most important basis functions are
#  listed first).
#
#  Constructed for dimers: 1.675 A, 1.9 A, 2.375 A, 3.00 A, 4.00 A
#
################################################################################
#  "First tier"  - max. impr. -711.23  meV, min. impr. -21.07 meV
     hydro 4 f 8.4
     hydro 3 d 2.8
     ionic 5 p auto
     hydro 5 g 12
     ionic 5 s auto
#  "Second tier" - max. impr. -39.38  meV, min. impr. -2.68 meV
#     hydro 4 f 12.4
#     hydro 3 d 3.3
#     hydro 6 h 17.2
#     hydro 4 f 7.6    
#     hydro 3 p 3.0    
#     hydro 1 s 0.65   
#  "Third tier"  - max. impr. -5.50 meV, min. impr. -0.47 meV
#     hydro 4 f 29.2
#     hydro 5 g 11.2
#     hydro 3 d 6.8
#     hydro 6 h 14.8
#     hydro 2 p 2.3
#     hydro 4 s 3.8    
#  "Fourth tier"  - max. impr. -0.58 meV, min. impr. -0.19 meV
#     hydro 5 f 6.8    
#     hydro 5 d 14.8
#     hydro 6 s 7.8
#     hydro 5 g 20.8
#     hydro 5 d 10.4
#     hydro 5 p 9.8
#  Further functions - -0.17 meV and below
#     hydro 5 d 3.2  
################################################################################
#
#  FHI-aims code project
#  Volker Blum, Fritz Haber Institute Berlin, 2009
#
#  Suggested "tight" defaults for Au atom (to be pasted into control.in file)
#
#  Feb. 16, 2013: Commented out the "h" basis function from tier 1 in the default.
#                 Au is the only element to have this, and it usually does not
#                 make a difference. With the advent of hybrid functionals, the
#                 extra effort is critical.
#
################################################################################
  species        Au
#     global species definitions
    nucleus             79
    mass                196.966569
#
    l_hartree           6
#
    cut_pot             4.0  2.0  1.0
    basis_dep_cutoff    1e-4
#
    radial_base         73 7.0
    radial_multiplier   2
    angular_grids specified
      division   0.3416   50
      division   0.7206  110
      division   1.1171  194
      division   1.2821  302
      division   1.5560  434
#      division   2.1046  590
#      division   2.2363  770
#      division   2.2710  974
#      division   2.8078 1202
#      outer_grid 1202
      outer_grid  434
 ################################################################################
#
#  Definition of "minimal" basis
#
################################################################################
#     valence basis states
    valence      6  s   1.
    valence      5  p   6.
    valence      5  d  10.
    valence      4  f  14.
#     ion occupancy
    ion_occ     6  s   0.
    ion_occ     5  p   6.
    ion_occ     5  d   9.
    ion_occ     4  f   14.
################################################################################
#
#  Suggested additional basis functions. For production calculations, 
#  uncomment them one after another (the most important basis functions are
#  listed first).
#
#  Constructed for dimers: 2.10, 2.45, 3.00, 4.00 AA
#
################################################################################
#  "First tier" - max. impr. -161.60  meV, min. impr. -4.53 meV
     ionic 6 p auto
     hydro 4 f 7.4
     ionic 6 s auto
     hydro 5 g 10
#     hydro 6 h 12.8
     hydro 3 d 2.5
#  "Second tier" - max. impr. -2.46  meV, min. impr. -0.28 meV
#     hydro 5 f 14.8
#     hydro 4 d 3.9
#     hydro 3 p 3.3
#     hydro 1 s 0.45
#     hydro 5 g 16.4
#     hydro 6 h 13.6
#  "Third tier" - max. impr. -0.49  meV, min. impr. -0.09 meV
#     hydro 4 f 5.2
#     hydro 4 d 5
#     hydro 5 g 8
#     hydro 5 p 8.2
#     hydro 6 d 12.4
#     hydro 6 s 14.8
#  Further basis functions: -0.08 meV and below
#     hydro 5 f 18.8
#     hydro 5 g 20
#    hydro 5 g 15.2
