# 
# This is the geometry file that corresponds to the current relaxation step.
# If you do not want this file to be written, set the "write_restart_geometry" flag to .false.
#  aims_uuid : 6C3D7DE0-1385-4A9C-A4ED-486A4442ED9E                                
# 
lattice_vector     -0.08142171      2.02892989      1.99287691
lattice_vector      2.04045352     -0.07452547      2.00428281
lattice_vector      2.09430246      2.09433436      0.01959238
atom       0.00000000      0.00000000      0.00000000 Au
# 
# What follows is the current estimated Hessian matrix constructed by the BFGS algorithm.
# This is NOT the true Hessian matrix of the system.
# If you do not want this information here, switch it off using the "hessian_to_restart_geometry" keyword.
# 
trust_radius             0.0017307285
hessian_file
