# 
# This is the geometry file that corresponds to the current relaxation step.
# If you do not want this file to be written, set the "write_restart_geometry" flag to .false.
#  aims_uuid : EC64E2E4-64E5-46B3-A410-72F38863F2FB                                
# 
lattice_vector     -0.05673290      2.00851548      1.97329753
lattice_vector      2.00842746     -0.05717362      1.97312971
lattice_vector      2.24211279      2.24221094      0.13670127
atom       0.00000000      0.00000000      0.00000000 Au
# 
# What follows is the current estimated Hessian matrix constructed by the BFGS algorithm.
# This is NOT the true Hessian matrix of the system.
# If you do not want this information here, switch it off using the "hessian_to_restart_geometry" keyword.
# 
trust_radius             0.1000000015
hessian_file
