# 
# This is the geometry file that corresponds to the current relaxation step.
# If you do not want this file to be written, set the "write_restart_geometry" flag to .false.
#  aims_uuid : 00A556F7-3FD7-4763-ABF8-D5304700D59F                                
# 
  set_vacuum_level        52.535698
lattice_vector     15.80931190      0.00000000      0.00000000
lattice_vector     -7.90633915     13.69010115      0.00000000
lattice_vector      0.00000000      0.00000000     99.93885963
atom      -0.02912892      0.87947983      2.56674596 W
atom       1.55150128      1.80546565      4.13815923 S
atom       1.55150904      1.80547587      0.99536282 S
atom      -1.58977497      3.63539190      2.56675434 W
atom       0.01136249      4.61822089      4.13778900 S
atom       0.01137117      4.61821237      0.99573009 S
atom      -3.15269074      6.34170013      2.56673766 W
atom      -1.50085124      7.23669831      4.13771277 S
atom      -1.50084330      7.23667943      0.99576354 S
atom      -4.75972765      9.07082039      2.56671483 W
atom      -3.16735567      9.97648229      4.13811996 S
atom      -3.16735153      9.97649373      0.99532901 S
atom      -6.35443273     11.81627800      2.56672472 W
atom      -4.76783671     12.73215417      4.13762545 S
atom      -4.76783029     12.73217780      0.99585210 S
atom       3.13223691      0.87948244      2.56675654 W
atom       4.70746365      1.79870009      4.14082148 S
atom       4.70746063      1.79870572      0.99270566 S
atom       1.55120171      3.65464763      2.56676718 W
atom       3.09097384      4.61819713      4.13772761 S
atom       3.09097189      4.61817795      0.99579765 S
atom       0.12792552      6.43135221      2.56674856 W
atom      -1.56567791      9.05191661      2.56672531 W
atom       0.03866759      9.90353940      4.13769601 S
atom       0.03865908      9.90354784      0.99574809 S
atom      -3.17938714     11.80834540      2.56673443 W
atom      -1.59561445     12.71278555      4.14080241 S
atom      -1.59562010     12.71280206      0.99267155 S
atom       6.29107867      0.86227448      2.56675378 W
atom       7.87289477      1.77545059      4.14131786 S
atom       7.87287885      1.77545001      0.99217451 S
atom       4.69223801      3.63535645      2.56676273 W
atom       6.28040616      4.52266941      4.14114131 S
atom       6.28039187      4.52264620      0.99235650 S
atom       2.97382743      6.43134249      2.56674492 W
atom       4.60252650      7.23673245      4.13768356 S
atom       4.60251235      7.23670120      0.99576541 S
atom       1.55059896      8.89576893      2.56671735 W
atom       3.06237218      9.90351593      4.13772874 S
atom       3.06236103      9.90351491      0.99568088 S
atom      -0.01231914     11.78155154      2.56672868 W
atom       1.55018181     12.71325615      4.14111974 S
atom       1.55016552     12.71326453      0.99231488 S
atom       9.45625585      0.85720924      2.56673394 W
atom      11.03947544      1.77545604      4.14131905 S
atom      11.03947187      1.77546241      0.99214567 S
atom       7.86892073      3.60570605      2.56674397 W
atom       9.45584952      4.51759230      4.14132238 S
atom       9.45584453      4.51757761      0.99215050 S
atom       6.25448214      6.34169976      2.56672659 W
atom       7.85261043      7.24705058      4.14078424 S
atom       7.85260718      7.24702590      0.99264714 S
atom       4.66682347      9.05196985      2.56670160 W
atom       6.26840114      9.97651319      4.13808669 S
atom       6.26840042      9.97651598      0.99530767 S
atom       3.11277803     11.78155882      2.56670895 W
atom       4.69596563     12.71278602      4.14076141 S
atom       4.69596252     12.71280396      0.99265258 S
atom      12.62135836      0.86227180      2.56672730 W
atom      14.20486191      1.79871558      4.14079646 S
atom      14.20487122      1.79873435      0.99268273 S
atom      11.04289985      3.60569754      2.56673737 W
atom      12.63126361      4.52265207      4.14112799 S
atom      12.63127827      4.52264760      0.99235665 S
atom       9.45555243      6.34407200      2.56672197 W
atom      11.05837221      7.24703715      4.14079556 S
atom      11.05838564      7.24702386      0.99265113 S
atom       7.86087187      9.07083440      2.56669828 W
atom       9.45516242      9.98429459      4.13758750 S
atom       9.45517757      9.98430780      0.99583066 S
atom       6.27984068     11.80836875      2.56670247 W
atom       7.86817156     12.73215400      4.13759659 S
atom       7.86818575     12.73218277      0.99584008 S
# 
# What follows is the current estimated Hessian matrix constructed by the BFGS algorithm.
# This is NOT the true Hessian matrix of the system.
# If you do not want this information here, switch it off using the "hessian_to_restart_geometry" keyword.
# 
trust_radius             0.0003612734
hessian_file
