# 
# This is the geometry file that corresponds to the current relaxation step.
# If you do not want this file to be written, set the "write_restart_geometry" flag to .false.
#  aims_uuid : 08B73D0A-310C-41CB-A118-50D2340E5F6D                                
# 
  set_vacuum_level        52.522244
lattice_vector     15.80931190      0.00000000      0.00000000
lattice_vector     -7.90633915     13.69010115      0.00000000
lattice_vector      0.00000000      0.00000000     99.93885963
atom       0.02512954      0.96150089      2.60969004 W
atom       1.60597204      1.90242596      4.16913511 S
atom       1.60597035      1.86449264      1.02377219 S
atom      -1.54607680      3.70793957      2.60895784 W
atom       0.07410183      4.68803134      4.14116659 S
atom       0.00985863      4.61956749      0.98984536 S
atom      -3.11805619      6.43000769      2.60893773 W
atom      -1.45914921      7.34289735      4.14112584 S
atom      -1.55048280      7.32145243      0.98982269 S
atom      -4.71167140      9.16352184      2.60967914 W
atom      -3.10628178     10.06189120      4.16916296 S
atom      -3.13913756     10.08086539      1.02370827 S
atom      -6.30001882     11.90548673      2.60994422 W
atom      -4.71652083     12.81958885      4.18407154 S
atom      -4.71595414     12.81992662      1.03618311 S
atom       3.18694664      0.96149657      2.60968931 W
atom       4.75513845      1.88230272      4.19260462 S
atom       4.77476437      1.87088535      1.04176649 S
atom       1.60567249      3.72351716      2.56891897 W
atom       3.13720016      4.68796749      4.14114205 S
atom       3.20138388      4.61956180      0.98991170 S
atom       0.09104942      6.46790250      2.51731711 W
atom       1.60529368      7.34203601      0.89071977 S
atom      -1.52898665      9.15141494      2.56889931 W
atom       0.07207887      9.99539409      4.14108918 S
atom       0.04491647     10.08519062      0.98982134 S
atom      -3.13109340     11.90137127      2.60967864 W
atom      -1.54948215     12.79900003      4.19261141 S
atom      -1.54957877     12.82172182      1.04172140 S
atom       6.34730842      0.95254414      2.62699343 W
atom       7.92527243      1.86348136      4.20867296 S
atom       7.93181223      1.86725851      1.05694796 S
atom       4.75746762      3.70792999      2.60895988 W
atom       6.32973192      4.61487131      4.19662831 S
atom       6.35343791      4.60117599      1.04422242 S
atom       3.11965130      6.46788775      2.51733436 W
atom       4.66975703      7.34286706      4.14113408 S
atom       4.76110527      7.32146346      0.98988935 S
atom       1.60501115      9.09054041      2.51726787 W
atom       3.13783110      9.99535111      4.14111791 S
atom       3.16502348     10.08521156      0.98982247 S
atom       0.03298908     11.88849034      2.60891857 W
atom       1.60461185     12.79653747      4.19659427 S
atom       1.60463102     12.82392860      1.04422212 S
atom       9.51070686      0.94962439      2.63235129 W
atom      11.09598710      1.86347787      4.20869074 S
atom      11.08945966      1.86725152      1.05694698 S
atom       7.92611189      3.69334575      2.63235894 W
atom       9.51028970      4.60919295      4.20868988 S
atom       9.51029722      4.60163093      1.05693793 S
atom       6.32879732      6.43000281      2.60894820 W
atom       7.90857852      7.34497394      4.19263102 S
atom       7.92827896      7.33368602      1.04172508 S
atom       4.73905539      9.15144040      2.56889772 W
atom       6.31624212     10.06191730      4.16915581 S
atom       6.34908079     10.08088946      1.02371837 S
atom       3.17639742     11.88850418      2.60893556 W
atom       4.75873220     12.79899531      4.19265314 S
atom       4.75882197     12.82172490      1.04171303 S
atom      12.67407477      0.95254034      2.62700832 W
atom      14.26612260      1.88232158      4.19261565 S
atom      14.24648101      1.87088477      1.04177534 S
atom      11.09459169      3.69332700      2.63236631 W
atom      12.69083983      4.61488184      4.19660602 S
atom      12.66713002      4.60116070      1.04423828 S
atom       9.51001363      6.43123278      2.62699189 W
atom      11.11133917      7.34496465      4.19259058 S
atom      11.09161715      7.33367479      1.04175574 S
atom       7.92169795      9.16347917      2.60968240 W
atom       9.50961468     10.07714603      4.18407806 S
atom       9.50961691     10.07648217      1.03617181 S
atom       6.34045034     11.90140443      2.60968615 W
atom       7.92575951     12.81959412      4.18409127 S
atom       7.92518543     12.81993866      1.03616865 S
# 
# What follows is the current estimated Hessian matrix constructed by the BFGS algorithm.
# This is NOT the true Hessian matrix of the system.
# If you do not want this information here, switch it off using the "hessian_to_restart_geometry" keyword.
# 
trust_radius             0.0006892803
hessian_file
