# 
# This is the geometry file that corresponds to the current relaxation step.
# If you do not want this file to be written, set the "write_restart_geometry" flag to .false.
#  aims_uuid : 0E4C2773-5E61-4A6D-AE03-C1FB5964AC0C                                
# 
  set_vacuum_level        53.505960
lattice_vector     15.80931190      0.00000000      0.00000000
lattice_vector     -7.90633915     13.69010115      0.00000000
lattice_vector      0.00000000      0.00000000     99.93885963
atom       0.02491248      0.95318717      2.59902875 W
atom       1.60681391      1.86638975      4.17455906 S
atom       1.60616786      1.86602442      1.02222398 S
atom      -1.55624007      3.69068885      2.60066353 W
atom       0.02447251      4.60294499      4.17836417 S
atom       0.02170189      4.60564476      1.02294730 S
atom      -3.13630515      6.42909743      2.60244922 W
atom      -1.55662069      7.34161700      4.18142520 S
atom      -1.55659702      7.34313292      1.02558834 S
atom      -4.71841632      9.16846635      2.60248338 W
atom      -3.13815395     10.08010503      4.18141811 S
atom      -3.13686004     10.07933826      1.02560678 S
atom      -6.30057242     11.90562906      2.60071236 W
atom      -4.72004602     12.81830413      4.17837014 S
atom      -4.71915144     12.81452336      1.02295853 S
atom       3.18955532      0.95053459      2.59759836 W
atom       4.76616800      1.86826341      4.17528258 S
atom       4.76585925      1.85229646      1.00942173 S
atom       1.60458322      3.69490113      2.59760826 W
atom       3.18774139      4.60128101      4.17532825 S
atom       3.17375429      4.60907814      1.00943627 S
atom       0.02320200      6.42906903      2.60247724 W
atom       1.60880428      7.33986024      4.17701504 S
atom       1.60313355      7.34314602      1.02538250 S
atom      -1.55688482      9.16732936      2.60414715 W
atom       0.02425053     10.08012528      4.18140254 S
atom       0.02295850     10.07933278      1.02561040 S
atom      -3.13893329     11.90441540      2.60246355 W
atom      -1.55729623     12.82212708      4.17697341 S
atom      -1.55731431     12.81551781      1.02531439 S
atom       6.34877083      0.95669681      2.59659686 W
atom       7.93130329      1.86824568      4.17522481 S
atom       7.93155920      1.85224374      1.00937053 S
atom       4.74016552      3.67552583      2.58451844 W
atom       6.34842918      4.60382834      4.11760662 S
atom       6.34852380      4.60357611      6.06472771 S
atom       6.34834767      4.60391161      1.03836437 S
atom       3.18922183      6.42759433      2.59667777 W
atom       4.77000526      7.34215438      4.17535976 S
atom       4.75628873      7.35039327      1.00946794 S
atom       1.60460475      9.16844638      2.60248718 W
atom       3.18657679     10.08060179      4.17839451 S
atom       3.18288256     10.08163660      1.02296371 S
atom       0.02445641     11.90444913      2.60244026 W
atom       1.60546962     12.81831931      4.17831453 S
atom       1.60456191     12.81450563      1.02291678 S
atom       9.50807137      0.95053149      2.59752986 W
atom      11.09061574      1.86639263      4.17452963 S
atom      11.09128169      1.86601611      1.02211698 S
atom       7.95671759      3.67549911      2.58443096 W
atom       9.50901247      4.60127297      4.17526722 S
atom       9.52301022      4.60908367      1.00936289 S
atom       6.34809976      6.46083153      2.58454995 W
atom       7.92609888      7.34212831      4.17537120 S
atom       7.93977515      7.35040256      1.00943062 S
atom       4.76316224      9.16645059      2.59765245 W
atom       6.34773376     10.07893301      4.17464415 S
atom       6.34773438     10.07964695      1.02222566 S
atom       3.18611211     11.90566467      2.60067585 W
atom       4.76720162     12.81844760      4.17717207 S
atom       4.76622437     12.81782477      1.02204810 S
atom      12.67262200      0.95318247      2.59898916 W
atom      14.25333829      1.86501205      4.17711390 S
atom      14.25337359      1.86616532      1.02208205 S
atom      11.09229293      3.69486841      2.59754118 W
atom      12.67224042      4.60295111      4.17831325 S
atom      12.67506592      4.60565885      1.02292454 S
atom       9.50698125      6.42759471      2.59663298 W
atom      11.08726012      7.33985556      4.17698100 S
atom      11.09294832      7.34317676      1.02535948 S
atom       7.93237563      9.16640050      2.59765398 W
atom       9.50883154     10.08058904      4.17840825 S
atom       9.51252504     10.08166550      1.02297452 S
atom       6.34739738     11.90545249      2.59904827 W
atom       7.92751540     12.81841085      4.17718451 S
atom       7.92852630     12.81780849      1.02209303 S
# 
# What follows is the current estimated Hessian matrix constructed by the BFGS algorithm.
# This is NOT the true Hessian matrix of the system.
# If you do not want this information here, switch it off using the "hessian_to_restart_geometry" keyword.
# 
trust_radius             0.0005588297
hessian_file
