# 
# This is the geometry file that corresponds to the current relaxation step.
# If you do not want this file to be written, set the "write_restart_geometry" flag to .false.
#  aims_uuid : 7BA6FBFD-2295-4EE3-AF58-3F339DA8D036                                
# 
  set_vacuum_level        52.518443
lattice_vector     15.80931190      0.00000000      0.00000000
lattice_vector     -7.90633915     13.69010115      0.00000000
lattice_vector      0.00000000      0.00000000     99.93885963
atom       0.04025053      0.97926811      2.62419192 W
atom       1.66737604      1.98553716      4.12666668 S
atom       1.59038362      1.87539577      0.98471898 S
atom      -1.50020347      3.72387132      2.63717799 W
atom       0.24916949      4.73385305      4.11405641 S
atom       0.02871136      4.60647410      0.96411844 S
atom      -3.10755116      6.42985680      2.62413307 W
atom      -1.42251345      7.33574767      4.12659595 S
atom      -1.55630520      7.32411227      0.98467772 S
atom      -4.71892369      9.16159090      2.61976656 W
atom      -3.10705577     10.06647852      4.16791481 S
atom      -3.14970236     10.07866927      1.02736443 S
atom      -6.30529880     11.90843785      2.61978566 W
atom      -4.71565039     12.85171946      4.16795221 S
atom      -4.72641934     12.80872605      1.02737824 S
atom       3.18721489      0.98397171      2.56612426 W
atom       4.71481041      1.94356103      4.14084224 S
atom       4.79256248      1.87429792      0.99220843 S
atom       1.69489836      3.76154411      2.47923875 W
atom       3.21493700      4.61073258      0.84356571 S
atom       0.12964079      6.47188463      2.47920390 W
atom       1.62516294      7.36349777      0.84346527 S
atom      -1.53026396      9.15262154      2.56608155 W
atom       0.06463644      9.99562176      4.14075528 S
atom       0.04347387     10.09764321      0.99211715 S
atom      -3.13535117     11.90721599      2.60631819 W
atom      -1.56396155     12.81433735      4.19256682 S
atom      -1.54620324     12.82462819      1.04289052 S
atom       6.34249563      0.96340212      2.61979933 W
atom       7.90576848      1.86918472      4.22104822 S
atom       7.94728444      1.86893378      1.07140786 S
atom       4.69551671      3.72455504      2.51318537 W
atom       6.22424725      4.60103808      4.15793316 S
atom       6.35222347      4.58263845      1.00987053 S
atom       3.11801915      6.39024184      2.41106123 W
atom       4.56004694      7.22263194      4.10738512 S
atom       4.74292161      7.32828122      0.94794334 S
atom       1.59762202      9.08876868      2.51303721 W
atom       3.12099717      9.97425933      4.15789324 S
atom       3.16914837     10.09441361      1.00977670 S
atom       0.02917936     11.89521965      2.61975228 W
atom       1.59524251     12.79607426      4.22101876 S
atom       1.61580912     12.83216426      1.07138617 S
atom       9.51311395      0.95497573      2.66226838 W
atom      11.09821551      1.87004933      4.24744927 S
atom      11.10296540      1.87276477      1.09906124 S
atom       7.90974926      3.69210795      2.64141287 W
atom       9.49003141      4.60931049      4.23088166 S
atom       9.51879097      4.59436211      1.08443809 S
atom       6.28078389      6.40360408      2.58614835 W
atom       7.86239675      7.31745735      4.19204781 S
atom       7.91798817      7.32708868      1.05666455 S
atom       4.71064053      9.12232696      2.58612245 W
atom       6.29295150     10.03492875      4.19204498 S
atom       6.32911653     10.07830473      1.05666591 S
atom       3.17621864     11.88835870      2.64138599 W
atom       4.76072510     12.79816973      4.23089115 S
atom       4.76220215     12.83056548      1.08443829 S
atom      12.68511339      0.96128473      2.67107290 W
atom      14.29967232      1.90109550      4.22356975 S
atom      14.24933397      1.88415562      1.08079781 S
atom      11.10428397      3.69860039      2.67105137 W
atom      12.72550925      4.62683783      4.22354623 S
atom      12.68571600      4.59164286      1.08077091 S
atom       9.49882945      6.42492603      2.64639009 W
atom      11.11013198      7.34402952      4.20410808 S
atom      11.08673112      7.32470419      1.06152354 S
atom       7.90309176      9.15283073      2.63023461 W
atom       9.50140917     10.07550439      4.19434909 S
atom       9.49157247     10.06984472      1.05417357 S
atom       6.33778556     11.89829881      2.64641209 W
atom       7.93951677     12.83400661      4.20412705 S
atom       7.91106604     12.82341374      1.06157625 S
# 
# What follows is the current estimated Hessian matrix constructed by the BFGS algorithm.
# This is NOT the true Hessian matrix of the system.
# If you do not want this information here, switch it off using the "hessian_to_restart_geometry" keyword.
# 
trust_radius             0.0003213329
hessian_file
