# 
# This is the geometry file that corresponds to the current relaxation step.
# If you do not want this file to be written, set the "write_restart_geometry" flag to .false.
#  aims_uuid : DF431FC4-09A1-446A-A42E-9FAA422ED6FE                                
# 
  set_vacuum_level        52.569430
lattice_vector     15.80931190      0.00000000      0.00000000
lattice_vector     -7.90633915     13.69010115      0.00000000
lattice_vector      0.00000000      0.00000000     99.93885963
atom       0.02485755      0.95343021      2.60000000 W
atom       1.60576017      1.86606371      4.17727555 S
atom       1.60576017      1.86606371      1.02272445 S
atom      -1.55638885      3.69146357      2.60000000 W
atom       0.02449709      4.60407480      4.17732022 S
atom       0.02449709      4.60407480      1.02267978 S
atom      -3.13763443      6.42950298      2.60000000 W
atom      -1.55675549      7.34210428      4.17732236 S
atom      -1.55675549      7.34210428      1.02267764 S
atom      -4.71891814      9.16750884      2.60000000 W
atom      -3.13803508     10.08011486      4.17732679 S
atom      -3.13803508     10.08011486      1.02267321 S
atom      -6.30020955     11.90550207      2.60000000 W
atom      -4.71930303     12.81814212      4.17730902 S
atom      -4.71930303     12.81814212      1.02269098 S
atom       3.18679199      0.95344404      2.60000000 W
atom       4.76763955      1.86606456      4.17729321 S
atom       4.76763955      1.86606456      1.02270679 S
atom       1.60549798      3.69146575      2.60000000 W
atom       3.18636563      4.60408067      4.17730476 S
atom       3.18636563      4.60408067      1.02269524 S
atom       0.02422912      6.42945642      2.60000000 W
atom       1.60509313      7.34209231      4.17730763 S
atom       1.60509313      7.34209231      1.02269237 S
atom      -1.55703992      9.16750881      2.60000000 W
atom       0.02383017     10.08012271      4.17730952 S
atom       0.02383017     10.08012271      1.02269048 S
atom      -3.13829602     11.90548021      2.60000000 W
atom      -1.55745174     12.81816949      4.17730821 S
atom      -1.55745174     12.81816949      1.02269179 S
atom       6.34863376      0.95347372      2.60000000 W
atom       7.92950625      1.86605791      4.17729738 S
atom       7.92950625      1.86605791      1.02270262 S
atom       4.76737370      3.69146434      2.60000000 W
atom       6.34822672      4.60409571      4.17731790 S
atom       6.34822672      4.60409571      1.02268210 S
atom       3.18609477      6.42947592      2.60000000 W
atom       4.76695024      7.34211857      4.17732514 S
atom       4.76695024      7.34211857      1.02267486 S
atom       1.60481513      9.16749153      2.60000000 W
atom       3.18569420     10.08013498      4.17730679 S
atom       3.18569420     10.08013498      1.02269321 S
atom       0.02351412     11.90552058      2.60000000 W
atom       1.60441127     12.81814451      4.17730904 S
atom       1.60441127     12.81814451      1.02269096 S
atom       9.51052551      0.95344479      2.60000000 W
atom      11.09136245      1.86606755      4.17730772 S
atom      11.09136245      1.86606755      1.02269228 S
atom       7.92920234      3.69146002      2.60000000 W
atom       9.51009129      4.60408619      4.17731395 S
atom       9.51009129      4.60408619      1.02268605 S
atom       6.34791667      6.42951566      2.60000000 W
atom       7.92882377      7.34210878      4.17732173 S
atom       7.92882377      7.34210878      1.02267827 S
atom       4.76670646      9.16751910      2.60000000 W
atom       6.34757294     10.08014966      4.17732717 S
atom       6.34757294     10.08014966      1.02267283 S
atom       3.18544000     11.90556262      2.60000000 W
atom       4.76628807     12.81816728      4.17735031 S
atom       4.76628807     12.81816728      1.02264969 S
atom      12.67236365      0.95342288      2.60000000 W
atom      14.25320133      1.86607777      4.17730497 S
atom      14.25320133      1.86607777      1.02269503 S
atom      11.09107837      3.69145285      2.60000000 W
atom      12.67193999      4.60409190      4.17730380 S
atom      12.67193999      4.60409190      1.02269620 S
atom       9.50980878      6.42947781      2.60000000 W
atom      11.09067693      7.34210753      4.17730482 S
atom      11.09067693      7.34210753      1.02269518 S
atom       7.92852262      9.16748330      2.60000000 W
atom       9.50941051     10.08013219      4.17731495 S
atom       9.50941051     10.08013219      1.02268505 S
atom       6.34724542     11.90552725      2.60000000 W
atom       7.92813813     12.81814415      4.17733185 S
atom       7.92813813     12.81814415      1.02266815 S
# 
# What follows is the current estimated Hessian matrix constructed by the BFGS algorithm.
# This is NOT the true Hessian matrix of the system.
# If you do not want this information here, switch it off using the "hessian_to_restart_geometry" keyword.
# 
trust_radius             0.0005233445
hessian_file
