# 
# This is the geometry file that corresponds to the current relaxation step.
# If you do not want this file to be written, set the "write_restart_geometry" flag to .false.
#  aims_uuid : 8133FC5F-AFAF-48EF-A714-C3D439DCBB16                                
# 
  set_vacuum_level        52.665000
lattice_vector     16.36917158     -0.00075183     -0.00036700
lattice_vector     -8.18511131     14.17560899      0.00841895
lattice_vector      0.00012729     -0.00030788     98.20732859
atom       0.00079800      0.95516004      2.63324027 W
atom       1.63687990      1.93564129      4.31092904 Se
atom       1.63683387      1.88887594      0.92417623 Se
atom      -1.62455275      3.80076095      2.63062171 W
atom       0.05861356      4.83378518      4.27239384 Se
atom      -0.01511758      4.74474822      0.88896586 Se
atom      -3.24994183      6.61582275      2.63220845 W
atom      -1.51279572      7.55525472      4.27391702 Se
atom      -1.62839012      7.53891599      0.89050796 Se
atom      -4.90188215      9.44608532      2.63823259 W
atom      -3.23369362     10.37093965      4.31588561 Se
atom      -3.27597157     10.39734817      0.92919760 Se
atom      -6.54815369     12.28549526      2.64128134 W
atom      -4.90729662     13.23165817      4.33550521 Se
atom      -4.90813684     13.23327403      0.94753037 Se
atom       3.27290883      0.95503205      2.63322129 W
atom       4.89492932      1.91106975      4.33710398 Se
atom       4.91772212      1.89514721      0.94513545 Se
atom       1.63673442      3.81794640      2.58479589 W
atom       3.21497067      4.83360505      4.27232081 Se
atom       3.28852981      4.74456891      0.88890175 Se
atom       0.11098020      6.67937072      2.51512796 W
atom       1.63666266      7.56108744      0.71196703 Se
atom      -1.60435991      9.43127664      2.58804229 W
atom       0.06530143     10.28847769      4.27551587 Se
atom       0.02327342     10.39971405      0.89216644 Se
atom      -3.26594944     12.27952147      2.63992822 W
atom      -1.62595437     13.20441321      4.34375484 Se
atom      -1.63014844     13.23517441      0.95186688 Se
atom       6.54473915      0.94305117      2.65268086 W
atom       8.17931665      1.88562831      4.35552942 Se
atom       8.18644261      1.89170621      0.96333423 Se
atom       4.89808255      3.80046512      2.63049042 W
atom       6.52344632      4.73770423      4.34236208 Se
atom       6.55350663      4.72220995      0.94712982 Se
atom       3.16235404      6.67921183      2.51507394 W
atom       4.78618127      7.55489437      4.27384413 Se
atom       4.90168348      7.53853913      0.89041605 Se
atom       1.63656564      9.32173846      2.51657090 W
atom       3.20781314     10.28823999      4.27546378 Se
atom       3.24975897     10.39957114      0.89209075 Se
atom       0.01116047     12.26401777      2.63547079 W
atom       1.63648011     13.20123607      4.34735310 Se
atom       1.63638880     13.23806511      0.95221470 Se
atom       9.82142989      0.93913621      2.65811809 W
atom      11.46361822      1.88544527      4.35550029 Se
atom      11.45640020      1.89156624      0.96329415 Se
atom       8.17975711      3.78236386      2.65979878 W
atom       9.82143232      4.72963037      4.35716662 Se
atom       9.82132983      4.72331367      0.96493267 Se
atom       6.52328265      6.61528867      2.63201623 W
atom       8.15716823      7.56130010      4.34025552 Se
atom       8.18405850      7.55240639      0.94829375 Se
atom       4.87744680      9.43090836      2.58791764 W
atom       6.50689011     10.37047065      4.31567276 Se
atom       6.54897660     10.39681338      0.92897831 Se
atom       3.26171207     12.26383472      2.63539381 W
atom       4.89890678     13.20406407      4.34363235 Se
atom       4.90289762     13.23489603      0.95168910 Se
atom      13.09814152      0.94272233      2.65256042 W
atom      14.74807029      1.91060166      4.33686936 Se
atom      14.72505873      1.89463081      0.94488736 Se
atom      11.46296237      3.78223592      2.65972320 W
atom      13.11937352      4.73745775      4.34217277 Se
atom      13.08913957      4.72195252      0.94700094 Se
atom       9.82124970      6.61793794      2.65588158 W
atom      11.48539560      7.56116351      4.34013558 Se
atom      11.45834537      7.55226076      0.94818121 Se
atom       8.17500639      9.44543472      2.63796240 W
atom       9.82118298     10.38919043      4.33349139 Se
atom       9.82109041     10.39204951      0.94547628 Se
atom       6.53879061     12.27903360      2.63965422 W
atom       8.18019704     13.23107984      4.33517830 Se
atom       8.18087450     13.23260791      0.94721538 Se
# 
# What follows is the current estimated Hessian matrix constructed by the BFGS algorithm.
# This is NOT the true Hessian matrix of the system.
# If you do not want this information here, switch it off using the "hessian_to_restart_geometry" keyword.
# 
trust_radius             0.0001555732
hessian_file
