# 
# This is the geometry file that corresponds to the current relaxation step.
# If you do not want this file to be written, set the "write_restart_geometry" flag to .false.
#  aims_uuid : EA2DE10C-B33D-4482-AB9B-43B78821235B                                
# 
  set_vacuum_level        52.665000
lattice_vector     16.36917158     -0.00075183     -0.00036700
lattice_vector     -8.18511131     14.17560899      0.00841895
lattice_vector      0.00012729     -0.00030788     98.20732859
atom       0.00075608      0.95517261      2.63270689 W
atom       1.63680086      1.93502890      4.31083360 Se
atom       1.63678166      1.88948790      0.92410267 Se
atom      -1.62447415      3.80080937      2.63085696 W
atom       0.05841356      4.83325714      4.27349381 Se
atom      -0.01483195      4.74521701      0.88991506 Se
atom      -3.24993570      6.61574945      2.63243514 W
atom      -1.51332343      7.55515257      4.27503088 Se
atom      -1.62780340      7.53895361      0.89158368 Se
atom      -4.90192106      9.44604560      2.63786660 W
atom      -3.23430170     10.37121343      4.31588210 Se
atom      -3.27542729     10.39691463      0.92934493 Se
atom      -6.54820075     12.28552403      2.64047678 W
atom      -4.90739093     13.23163914      4.33483984 Se
atom      -4.90796378     13.23324674      0.94684278 Se
atom       3.27282919      0.95500320      2.63270101 W
atom       4.89494381      1.91069735      4.33670052 Se
atom       4.91763249      1.89533267      0.94465555 Se
atom       1.63671030      3.81795803      2.58559053 W
atom       3.21533268      4.83307780      4.27335879 Se
atom       3.28820917      4.74509374      0.88986067 Se
atom       0.11104425      6.67929225      2.51670897 W
atom       1.63676222      7.56117994      0.71379812 Se
atom      -1.60437456      9.43126663      2.58897718 W
atom       0.06483648     10.28911659      4.27661643 Se
atom       0.02353518     10.39925004      0.89307420 Se
atom      -3.26595183     12.27942483      2.63952631 W
atom      -1.62616872     13.20462459      4.34353701 Se
atom      -1.62998220     13.23489945      0.95149135 Se
atom       6.54465627      0.94294348      2.65211742 W
atom       8.17930953      1.88567293      4.35470210 Se
atom       8.18638165      1.89163136      0.96258197 Se
atom       4.89818340      3.80044354      2.63055759 W
atom       6.52388918      4.73760305      4.34207967 Se
atom       6.55314600      4.72252919      0.94690626 Se
atom       3.16241294      6.67923549      2.51666410 W
atom       4.78688939      7.55481116      4.27488614 Se
atom       4.90111272      7.53860408      0.89136973 Se
atom       1.63656954      9.32188457      2.51820615 W
atom       3.20819168     10.28876948      4.27649047 Se
atom       3.24961556     10.39908587      0.89317463 Se
atom       0.01112671     12.26402607      2.63565380 W
atom       1.63644363     13.20175834      4.34717308 Se
atom       1.63647665     13.23754568      0.95198786 Se
atom       9.82145932      0.93911471      2.65745395 W
atom      11.46358804      1.88555326      4.35470958 Se
atom      11.45627961      1.89156461      0.96244333 Se
atom       8.17969478      3.78237120      2.65905305 W
atom       9.82134321      4.72953804      4.35629928 Se
atom       9.82119141      4.72334833      0.96404066 Se
atom       6.52335706      6.61531718      2.63213415 W
atom       8.15769946      7.56140799      4.33979152 Se
atom       8.18370716      7.55242852      0.94785988 Se
atom       4.87747405      9.43089755      2.58884352 W
atom       6.50743965     10.37080958      4.31566136 Se
atom       6.54840257     10.39651295      0.92891984 Se
atom       3.26176780     12.26386116      2.63561532 W
atom       4.89917127     13.20442829      4.34330716 Se
atom       4.90262051     13.23464332      0.95130730 Se
atom      13.09810506      0.94277067      2.65188466 W
atom      14.74793385      1.91024903      4.33649738 Se
atom      14.72515769      1.89500736      0.94450679 Se
atom      11.46290751      3.78219087      2.65889437 W
atom      13.11887471      4.73713624      4.34200794 Se
atom      13.08952539      4.72216664      0.94679372 Se
atom       9.82129365      6.61792991      2.65513876 W
atom      11.48502629      7.56118061      4.33982247 Se
atom      11.45876247      7.55217066      0.94782334 Se
atom       8.17502680      9.44548098      2.63746551 W
atom       9.82113413     10.38940593      4.33284092 Se
atom       9.82110589     10.39189542      0.94480451 Se
atom       6.53882371     12.27902544      2.63919003 W
atom       8.18036237     13.23097733      4.33453559 Se
atom       8.18072212     13.23268940      0.94651207 Se
# 
# What follows is the current estimated Hessian matrix constructed by the BFGS algorithm.
# This is NOT the true Hessian matrix of the system.
# If you do not want this information here, switch it off using the "hessian_to_restart_geometry" keyword.
# 
trust_radius             0.0006431123
hessian_file
