#
lattice_vector      16.238659     -0.000     -0.00
lattice_vector      -8.11989635    14.06215255     -0.00
lattice_vector      0.0000      0.0000     99.93951163
atom_frac 0.03600509 0.06992524 0.02665000 Mo
atom_frac 0.17135112 0.13962627 0.04322694 Se
atom_frac 0.17135112 0.13962627 0.01007306 Se
atom_frac 0.04061259 0.27133003 0.02665000 Mo
atom_frac 0.18226410 0.35135616 0.04278940 Se
atom_frac 0.18226410 0.35135616 0.01051060 Se
atom_frac 0.03625681 0.46870857 0.02665000 Mo
atom_frac 0.17032192 0.53957245 0.04377212 Se
atom_frac 0.17032192 0.53957245 0.00952788 Se
atom_frac 0.03147577 0.66748491 0.02665000 Mo
atom_frac 0.16378488 0.73621828 0.04339152 Se
atom_frac 0.16378488 0.73621828 0.00990848 Se
atom_frac 0.03231442 0.86768284 0.02665000 Mo
atom_frac 0.16624514 0.93584779 0.04327194 Se
atom_frac 0.16624514 0.93584779 0.01002806 Se
atom_frac 0.23519384 0.06963407 0.02665000 Mo
atom_frac 0.36824342 0.13326191 0.04336559 Se
atom_frac 0.36824342 0.13326191 0.00993441 Se
atom_frac 0.24257929 0.27440201 0.02665000 Mo
atom_frac 0.37959781 0.34645275 0.04210088 Se
atom_frac 0.37959781 0.34645275 0.01119912 Se
atom_frac 0.24668471 0.49438171 0.02665000 Mo
atom_frac 0.23016117 0.66984599 0.02665000 Mo
atom_frac 0.36043535 0.72968232 0.04377214 Se
atom_frac 0.36043535 0.72968232 0.00952786 Se
atom_frac 0.23251537 0.86852578 0.02665000 Mo
atom_frac 0.36635918 0.93238147 0.04329588 Se
atom_frac 0.36635918 0.93238147 0.01000412 Se
atom_frac 0.43438965 0.06559194 0.02665000 Mo
atom_frac 0.56805470 0.13033807 0.04329407 Se
atom_frac 0.56805470 0.13033807 0.01000593 Se
atom_frac 0.43967921 0.26627801 0.02665000 Mo
atom_frac 0.57008703 0.32991136 0.04360866 Se
atom_frac 0.57008703 0.32991136 0.00969134 Se
atom_frac 0.55353974 0.52039819 0.04210076 Se
atom_frac 0.55353974 0.52039819 0.01119924 Se
atom_frac 0.40561800 0.65331319 0.02665000 Mo
atom_frac 0.54864637 0.71773473 0.04278913 Se
atom_frac 0.54864637 0.71773473 0.01051087 Se
atom_frac 0.43129531 0.86374509 0.02665000 Mo
atom_frac 0.56538422 0.92849011 0.04324159 Se
atom_frac 0.56538422 0.92849011 0.01005841 Se
atom_frac 0.63388722 0.06325078 0.02665000 Mo
atom_frac 0.76828913 0.13171236 0.04325699 Se
atom_frac 0.76828913 0.13171236 0.01004301 Se
atom_frac 0.63577989 0.26421840 0.02665000 Mo
atom_frac 0.76966063 0.33194530 0.04329405 Se
atom_frac 0.76966063 0.33194530 0.01000595 Se
atom_frac 0.63371749 0.46031804 0.02665000 Mo
atom_frac 0.76673252 0.53175335 0.04336579 Se
atom_frac 0.76673252 0.53175335 0.00993421 Se
atom_frac 0.62559902 0.65741762 0.02665000 Mo
atom_frac 0.76037492 0.72864794 0.04322692 Se
atom_frac 0.76037492 0.72864794 0.01007308 Se
atom_frac 0.62866980 0.85938779 0.02665000 Mo
atom_frac 0.76343693 0.92966328 0.04325469 Se
atom_frac 0.76343693 0.92966328 0.01004531 Se
atom_frac 0.83469386 0.06530568 0.02665000 Mo
atom_frac 0.97033713 0.13656347 0.04325475 Se
atom_frac 0.97033713 0.13656347 0.01004525 Se
atom_frac 0.83674956 0.26611407 0.02665000 Mo
atom_frac 0.97151269 0.33461939 0.04324149 Se
atom_frac 0.97151269 0.33461939 0.01005851 Se
atom_frac 0.83440397 0.46560991 0.02665000 Mo
atom_frac 0.96761746 0.53364165 0.04329576 Se
atom_frac 0.96761746 0.53364165 0.01000424 Se
atom_frac 0.83036248 0.66480099 0.02665000 Mo
atom_frac 0.96415066 0.73375196 0.04327189 Se
atom_frac 0.96415066 0.73375196 0.01002811 Se
atom_frac 0.83007444 0.86399339 0.02665000 Mo
atom_frac 0.96549731 0.93450264 0.04316413 Se
atom_frac 0.96549731 0.93450264 0.01013587 Se
