# 
# This is the geometry file that corresponds to the current relaxation step.
# If you do not want this file to be written, set the "write_restart_geometry" flag to .false.
#  aims_uuid : 12F67704-B8E0-47A8-ADF4-6F4B243250F3                                
# 
  set_vacuum_level        52.761532
lattice_vector     16.29568820      0.00000000      0.00000000
lattice_vector     -8.14028310     14.11790945      0.00000000
lattice_vector      0.00000000      0.00000000    100.31494303
atom_frac       0.03273606      0.06596049      0.02570106 W
atom_frac       0.16823565      0.13464008      0.04192372 Se
atom_frac       0.16293216      0.12801731      0.00859220 Se
atom_frac       0.03383985      0.26700056      0.02558223 W
atom_frac       0.17128059      0.33431189      0.04157138 Se
atom_frac       0.16695252      0.33442112      0.00872265 Se
atom_frac       0.03276217      0.46666546      0.02598759 W
atom_frac       0.16664428      0.53331689      0.04263539 Se
atom_frac       0.16400772      0.53544799      0.00914871 Se
atom_frac       0.03342544      0.66680522      0.02610645 W
atom_frac       0.16663839      0.73415350      0.04267703 Se
atom_frac       0.16607225      0.73318172      0.00939348 Se
atom_frac       0.03346497      0.86665270      0.02600359 W
atom_frac       0.16750547      0.93467559      0.04244035 Se
atom_frac       0.16522441      0.93082505      0.00913025 Se
atom_frac       0.23280447      0.06546612      0.02541343 W
atom_frac       0.36553167      0.13351158      0.04209076 Se
atom_frac       0.36589303      0.12907130      0.00872525 Se
atom_frac       0.23323994      0.26324062      0.02464223 W
atom_frac       0.37273537      0.34617502      0.03953425 Se
atom_frac       0.36030064      0.31923818      0.00703218 Se
atom_frac       0.23245038      0.47017480      0.02535570 W
atom_frac       0.36797856      0.53538855      0.04235914 Se
atom_frac       0.36537599      0.52980002      0.01025087 Se
atom_frac       0.23275289      0.66715161      0.02607499 W
atom_frac       0.36433159      0.73637224      0.04301486 Se
atom_frac       0.36665836      0.73266302      0.00954587 Se
atom_frac       0.23319559      0.86663796      0.02592780 W
atom_frac       0.36630180      0.93431669      0.04258974 Se
atom_frac       0.36660257      0.93220776      0.00929044 Se
atom_frac       0.43323380      0.06600419      0.02579778 W
atom_frac       0.56599615      0.13371975      0.04255248 Se
atom_frac       0.56723500      0.13374305      0.00931486 Se
atom_frac       0.42936999      0.26316200      0.02500131 W
atom_frac       0.56231313      0.33259113      0.04233516 Se
atom_frac       0.56771052      0.33746541      0.00950823 Se
atom_frac       0.58062075      0.53945982      0.04482199 Se
atom_frac       0.55546760      0.52754942      0.01229745 Se
atom_frac       0.42917815      0.66680388      0.02693498 W
atom_frac       0.56576508      0.73284601      0.04341165 Se
atom_frac       0.56497148      0.72786002      0.01062890 Se
atom_frac       0.43320723      0.86713618      0.02609800 W
atom_frac       0.56611801      0.93408523      0.04282848 Se
atom_frac       0.56701635      0.93189116      0.00959178 Se
atom_frac       0.63294610      0.06648340      0.02604178 W
atom_frac       0.76680410      0.13355658      0.04260224 Se
atom_frac       0.76628546      0.13297603      0.00943320 Se
atom_frac       0.63280892      0.26709108      0.02596822 W
atom_frac       0.76586768      0.33265632      0.04267345 Se
atom_frac       0.76645746      0.33391239      0.00943663 Se
atom_frac       0.63747038      0.47064192      0.02681442 W
atom_frac       0.77071552      0.53401716      0.04323567 Se
atom_frac       0.76746884      0.53476014      0.00982683 Se
atom_frac       0.63723056      0.66658722      0.02746218 W
atom_frac       0.77265703      0.73729431      0.04343387 Se
atom_frac       0.76532700      0.73175079      0.01008148 Se
atom_frac       0.63277227      0.86582558      0.02651727 W
atom_frac       0.76760514      0.93450002      0.04289506 Se
atom_frac       0.76489242      0.93132245      0.00967531 Se
atom_frac       0.83334517      0.06644096      0.02602083 W
atom_frac       0.96834849      0.13469008      0.04237857 Se
atom_frac       0.96531887      0.13240092      0.00915159 Se
atom_frac       0.83332755      0.26688612      0.02599142 W
atom_frac       0.96762769      0.33275727      0.04248380 Se
atom_frac       0.96592076      0.33381187      0.00924259 Se
atom_frac       0.83404726      0.46671968      0.02619595 W
atom_frac       0.96751613      0.53336900      0.04274732 Se
atom_frac       0.96602883      0.53364991      0.00944605 Se
atom_frac       0.83473634      0.66725089      0.02656694 W
atom_frac       0.96921616      0.73486467      0.04287456 Se
atom_frac       0.96564341      0.73260844      0.00956592 Se
atom_frac       0.83411480      0.86724029      0.02631571 W
atom_frac       0.96884632      0.93528338      0.04266139 Se
atom_frac       0.96479194      0.93128270      0.00934970 Se
# 
# What follows is the current estimated Hessian matrix constructed by the BFGS algorithm.
# This is NOT the true Hessian matrix of the system.
# If you do not want this information here, switch it off using the "hessian_to_restart_geometry" keyword.
# 
trust_radius             0.0047978643
hessian_file
