&CONTROL
calculation = "scf"
pseudo_dir = "" ! insert pseudopotential directory
prefix = "unfold"
disk_io = "low"
/

&SYSTEM
ibrav = 0
nat = 73
ntyp = 2
ecutwfc = 30
noncolin = .true.
lspinorb = .true.
/

&ELECTRONS
/

ATOMIC_SPECIES
W 1. ! add W pseudo name
Se 1. ! add Se pseudo name

CELL_PARAMETERS angstrom
16.26920104	-0.00981694	-0.02309737
-8.18516487	14.12530854	-0.01310628
0.00021043	0.00083580	99.60834652

ATOMIC_POSITIONS angstrom
W	0.01596582	0.97101661	2.68783789
Se	1.69529987	2.04038429	4.28578362
Se	1.60049244	1.88632713	0.91148288
W	-1.55601651	3.81550274	2.70053251
Se	0.29533458	4.88926618	4.26823482
Se	-0.00512796	4.71191006	0.87952622
W	-3.24219454	6.59377360	2.68250409
Se	-1.48025040	7.52048708	4.28051563
Se	-1.65818895	7.51013809	0.90616374
W	-4.91751057	9.40930749	2.67743724
Se	-3.25012494	10.34321256	4.33715153
Se	-3.31146826	10.35139174	0.95298339
W	-6.55942914	12.24276076	2.67479922
Se	-4.92097738	13.22652512	4.33451324
Se	-4.94165173	13.16460390	0.95039830
W	3.24739888	0.97045611	2.61291884
Se	4.81641579	1.98048453	4.29655165
Se	4.89672230	1.88381399	0.91813371
W	1.75030648	3.86459872	2.49073973
Se	3.26942950	4.70432294	0.67243779
W	0.13143459	6.65834715	2.48805808
Se	1.61732251	7.55549355	0.66971968
W	-1.63519108	9.39665544	2.60499403
Se	0.02038104	10.25723393	4.28875146
Se	-0.02082886	10.37031347	0.91011504
W	-3.29751010	12.23987558	2.65101674
Se	-1.67875232	13.17890498	4.35471117
Se	-1.66745735	13.18239281	0.95912021
W	6.49651449	0.94639709	2.66792274
Se	8.10014411	1.88436448	4.39448489
Se	8.14849295	1.87858689	1.00003271
W	4.74702235	3.81868720	2.53005739
Se	6.33442917	4.69930942	4.31051970
Se	6.49306263	4.67647450	0.93121043
W	3.12749382	6.52783714	2.37682676
Se	4.56790079	7.36382483	4.24382187
Se	4.83586044	7.51598166	0.83950497
W	1.58216075	9.28031089	2.52485968
Se	3.13427274	10.22138487	4.30538521
Se	3.19621665	10.36582807	0.92581602
W	-0.04001706	12.22669279	2.65735723
Se	1.57016318	13.15320853	4.38396744
Se	1.59196385	13.19333259	0.98940474
W	9.76018199	0.93682848	2.71807861
Se	11.39260998	1.88383154	4.42543090
Se	11.39622869	1.88279950	1.03472698
W	8.09615943	3.76023568	2.68945501
Se	9.72053662	4.70908791	4.40277820
Se	9.75627700	4.68860633	1.01419419
W	6.39205753	6.55624071	2.61807688
Se	8.01871652	7.49476051	4.35152440
Se	8.09320235	7.50568380	0.97906436
W	4.77559234	9.34565006	2.61547035
Se	6.39777857	10.29181096	4.34895762
Se	6.44706091	10.34637156	0.97643332
W	3.19711452	12.21444368	2.68157209
Se	4.82710519	13.15351791	4.39495637
Se	4.82992929	13.19011627	1.00632328
W	13.02821148	0.94376116	2.72800240
Se	14.70031362	1.92762040	4.38959784
Se	14.63127284	1.89692079	1.01030930
W	11.39176191	3.76784630	2.72534055
Se	13.07586798	4.73096326	4.38695399
Se	13.01766809	4.68155784	1.00768113
W	9.72211335	6.57847029	2.69365985
Se	11.38866121	7.52822333	4.36478639
Se	11.35258418	7.50170794	0.98024557
W	8.06753283	9.38956835	2.67112220
Se	9.71455478	10.34499594	4.35194798
Se	9.69931845	10.33302554	0.96931589
W	6.45125744	12.22283737	2.68844050
Se	8.10312101	13.19806321	4.35954401
Se	8.06489046	13.17525885	0.97504786

K_POINTS automatic
4 4 1 0 0 0