#
# temporary structure-file for finite-difference calculation of forces
# displacement  -0.0025 of \# atom     1 direction     0
#
lattice_vector   15.83905019   -0.00000000    0.00000000
lattice_vector   -7.92011750   13.71653974    0.00000000
lattice_vector   -0.00000000   -0.00000000   99.87375975
atom    0.03111374    0.95855174    2.59689826  Mo
atom    1.63268008    1.95968152    4.29138701  Se
atom    1.63559080    1.96046641    0.90322974  Se
atom   -1.54985262    3.67518666    2.59734931  Mo
atom    0.02466787    4.62024120    4.32299892  Se
atom    0.02507151    4.62110276    0.87251822  Se
atom   -3.18445086    6.41328843    2.59784003  Mo
atom   -1.61912902    7.33538735    4.33020727  Se
atom   -1.61869536    7.33622420    0.86629774  Se
atom   -4.78479272    9.15118568    2.59829142  Mo
atom   -3.20131531   10.07721336    4.31348014  Se
atom   -3.20087637   10.07796329    0.88389393  Se
atom   -6.35585550   11.89896971    2.59868105  Mo
atom   -4.77418686   12.84281298    4.31105726  Se
atom   -4.77374817   12.84354921    0.88708313  Se
atom    3.19343680    0.97759095    2.59727852  Mo
atom    4.76382864    1.87088770    4.34302931  Se
atom    4.76432502    1.87175236    0.85241459  Se
atom    1.66059738    3.85244419    2.59775352  Mo
atom    3.32096624    4.83750546    4.29014214  Se
atom    3.32138211    4.83823606    0.90620739  Se
atom   -0.03015705    6.43676619    2.59823069  Mo
atom    1.56010287    7.32835960    4.30000015  Se
atom    1.56059453    7.32918229    0.89740443  Se
atom   -1.61014150    9.15914026    2.59869171  Mo
atom   -0.03575663   10.07802850    4.33112252  Se
atom   -0.03524143   10.07881054    0.86713669  Se
atom   -3.19061380   11.91228626    2.59907831  Mo
atom   -1.60128155   12.82027105    4.31804879  Se
atom   -1.60078396   12.82104523    0.88095383  Se
atom    6.33475124    0.93643070    2.59773832  Mo
atom    7.95610331    1.79296903    4.32349407  Se
atom    7.95663569    1.79383241    0.87291670  Se
atom    4.85389838    3.67862511    2.59820262  Mo
atom    6.44156976    4.50977539    4.33808548  Se
atom    6.44211804    4.51072089    0.85927450  Se
atom    4.59742881    7.04869877    4.29117690  Se
atom    4.59785745    7.04942391    0.90719806  Se
atom    1.53749103    9.15217328    2.59915864  Mo
atom    3.13756143   10.01210688    4.32487735  Se
atom    3.13809125   10.01288280    0.87435732  Se
atom   -0.01934465   11.89541044    2.59953629  Mo
atom    1.59026019   12.77633488    4.32183115  Se
atom    1.59078224   12.77712969    0.87814648  Se
atom    9.53454812    0.88482064    2.59823028  Mo
atom   11.11725017    1.81042384    4.31929606  Se
atom   11.11773561    1.81126245    0.87807380  Se
atom    7.99501904    3.61354126    2.59868228  Mo
atom    9.55175201    4.55665438    4.32444399  Se
atom    9.55223957    4.55754787    0.87387703  Se
atom    6.36803238    6.30123489    2.59915606  Mo
atom    7.88804902    7.28222975    4.34495173  Se
atom    7.88855687    7.28309395    0.85433096  Se
atom    4.62088297    8.97989448    2.59961275  Mo
atom    6.24692356    9.94749358    4.29412039  Se
atom    6.24739557    9.94824147    0.90599307  Se
atom    3.16930015   11.84892331    2.60002309  Mo
atom    4.75545276   12.77283090    4.31834100  Se
atom    4.75593887   12.77360895    0.88258118  Se
atom   12.69756752    0.89861719    2.59868562  Mo
atom   14.28168203    1.83799338    4.31696860  Se
atom   14.28211137    1.83880755    0.88122197  Se
atom   11.12798601    3.64469540    2.59914011  Mo
atom   12.69603762    4.57727753    4.32140879  Se
atom   12.69646925    4.57813351    0.87773242  Se
atom    9.48334363    6.38990974    2.59962898  Mo
atom   11.06218350    7.31920049    4.31859116  Se
atom   11.06261686    7.32001838    0.88152061  Se
atom    7.87702160    9.08970241    2.60008649  Mo
atom    9.45617372   10.05575740    4.31247130  Se
atom    9.45659974   10.05650265    0.88849275  Se
atom    6.31239359   11.83794992    2.60046775  Mo
atom    7.90192133   12.81067581    4.30707162  Se
atom    7.90234194   12.81140581    0.89466592  Se
