# 
# This is the geometry file that corresponds to the current relaxation step.
# If you do not want this file to be written, set the "write_restart_geometry" flag to .false.
#  aims_uuid : 20BF34BD-2791-47F2-AE14-13600B948E8E                                
# 
  set_vacuum_level        50.000000
lattice_vector      3.16903031     -0.00026360     -0.00000000
lattice_vector     -1.58471931      2.74428819     -0.00000000
lattice_vector      0.00000000      0.00000000     99.99970426
atom      -0.79225151     -0.45727277     -0.00000004 Mo
atom       0.79223754      0.45728313      1.55027692 S
atom       0.79223753      0.45728313     -1.55027687 S
# 
# What follows is the current estimated Hessian matrix constructed by the BFGS algorithm.
# This is NOT the true Hessian matrix of the system.
# If you do not want this information here, switch it off using the "hessian_to_restart_geometry" keyword.
# 
