# 
# This is the geometry file that corresponds to the current relaxation step.
# If you do not want this file to be written, set the "write_restart_geometry" flag to .false.
#  aims_uuid : F3F3E91D-528A-4856-AEBC-8999E068B6AE                                
# 
  set_vacuum_level        50.000000
lattice_vector      3.14473564     -0.00026158      0.00000000
lattice_vector     -1.57256703      2.72324386     -0.00000000
lattice_vector      0.00000000      0.00000000     99.99973667
atom      -0.78619042     -0.45375843     -0.00000004 Mo
atom       0.78617057      0.45377260      1.54877875 S
atom       0.78617056      0.45377260     -1.54877870 S
# 
# What follows is the current estimated Hessian matrix constructed by the BFGS algorithm.
# This is NOT the true Hessian matrix of the system.
# If you do not want this information here, switch it off using the "hessian_to_restart_geometry" keyword.
# 
trust_radius             0.0203805249
hessian_file
