#
lattice_vector      16.2956882     -0.00   -0.00
lattice_vector     -8.1402831      14.11790945      0.00
lattice_vector     -0.00      0.00    100.31494303
atom_frac 0.03408620 0.06788976 0.02664880 W
atom_frac 0.16768216 0.13544695 0.04362935 Se
atom_frac 0.16783304 0.13560013 0.00966859 Se
atom_frac 0.03631260 0.26943883 0.02665021 W
atom_frac 0.17399970 0.34187392 0.04353205 Se
atom_frac 0.17414595 0.34203357 0.00976764 Se
atom_frac 0.03636939 0.46684837 0.02665113 W
atom_frac 0.17406418 0.53204032 0.04353846 Se
atom_frac 0.17420725 0.53218956 0.00976287 Se
atom_frac 0.03410868 0.66617363 0.02665029 W
atom_frac 0.16770960 0.73215304 0.04363002 Se
atom_frac 0.16785530 0.73230238 0.00967005 Se
atom_frac 0.03334537 0.86665302 0.02664957 W
atom_frac 0.16714586 0.93353038 0.04359202 Se
atom_frac 0.16729523 0.93367961 0.00970721 Se
atom_frac 0.23383024 0.06789512 0.02664940 W
atom_frac 0.36701315 0.13513896 0.04362858 Se
atom_frac 0.36716772 0.13529264 0.00967143 Se
atom_frac 0.23512959 0.27022332 0.02664899 W
atom_frac 0.36778742 0.34194617 0.04353613 Se
atom_frac 0.36793967 0.34209288 0.00976238 Se
atom_frac 0.25216177 0.47606388 0.02665031 W
atom_frac 0.23514721 0.66484595 0.02664990 W
atom_frac 0.36780081 0.72577487 0.04353725 Se
atom_frac 0.36794838 0.72593315 0.00976111 Se
atom_frac 0.23383631 0.86590117 0.02664997 W
atom_frac 0.36702442 0.93181674 0.04362776 Se
atom_frac 0.36717506 0.93197329 0.00967247 Se
atom_frac 0.43286806 0.06643288 0.02665034 W
atom_frac 0.56632047 0.13314316 0.04363466 Se
atom_frac 0.56647358 0.13330004 0.00966704 Se
atom_frac 0.43313777 0.26949460 0.02665010 W
atom_frac 0.56592997 0.33392112 0.04363750 Se
atom_frac 0.56608451 0.33407142 0.00966381 Se
atom_frac 0.42390525 0.47609459 0.02664886 W
atom_frac 0.55790240 0.53205793 0.04353578 Se
atom_frac 0.55805903 0.53220960 0.00976245 Se
atom_frac 0.42392058 0.64782485 0.02664861 W
atom_frac 0.55795242 0.72584455 0.04353103 Se
atom_frac 0.55810732 0.72599799 0.00976657 Se
atom_frac 0.43315081 0.86362701 0.02664973 W
atom_frac 0.56594666 0.93198111 0.04363622 Se
atom_frac 0.56609579 0.93213942 0.00966332 Se
atom_frac 0.63304721 0.06609359 0.02665054 W
atom_frac 0.76671540 0.13313066 0.04363463 Se
atom_frac 0.76686728 0.13329255 0.00966753 Se
atom_frac 0.63304275 0.26696722 0.02665156 W
atom_frac 0.76671639 0.33354206 0.04363535 Se
atom_frac 0.76686758 0.33369069 0.00966856 Se
atom_frac 0.63050671 0.46686489 0.02664990 W
atom_frac 0.76471232 0.53283969 0.04362925 Se
atom_frac 0.76486642 0.53298804 0.00967197 Se
atom_frac 0.62976297 0.66486752 0.02664915 W
atom_frac 0.76439178 0.73216512 0.04362980 Se
atom_frac 0.76454313 0.73231641 0.00966938 Se
atom_frac 0.63055137 0.86368093 0.02664914 W
atom_frac 0.76473591 0.93182800 0.04362928 Se
atom_frac 0.76489076 0.93199052 0.00966992 Se
atom_frac 0.83357375 0.06642217 0.02665020 W
atom_frac 0.96801127 0.13510014 0.04362942 Se
atom_frac 0.96815784 0.13525749 0.00966985 Se
atom_frac 0.83391466 0.26695572 0.02665193 W
atom_frac 0.96787162 0.33390048 0.04363794 Se
atom_frac 0.96801213 0.33405290 0.00966434 Se
atom_frac 0.83358037 0.46714491 0.02665136 W
atom_frac 0.96804310 0.53284080 0.04362899 Se
atom_frac 0.96818666 0.53298502 0.00967272 Se
atom_frac 0.83210415 0.66617368 0.02664991 W
atom_frac 0.96632082 0.73270634 0.04359251 Se
atom_frac 0.96646688 0.73285388 0.00970727 Se
atom_frac 0.83210802 0.86591221 0.02664930 W
atom_frac 0.96631987 0.93353171 0.04359181 Se
atom_frac 0.96646736 0.93367946 0.00970653 Se
