# 
# This is the geometry file that corresponds to the current relaxation step.
# If you do not want this file to be written, set the "write_restart_geometry" flag to .false.
#  aims_uuid : B1B9E39D-8C72-4A4C-A8D0-94BE9FB80078                                
# 
  set_vacuum_level        52.665000
lattice_vector     16.26900255     -0.00908286     -0.03358006
lattice_vector     -8.18372768     14.12507326     -0.03586982
lattice_vector      0.00012078      0.00070391     97.77232699
atom       0.01668269      0.97229827      2.63986159 W
atom       1.69803803      2.04994337      4.23491407 Se
atom       1.59873663      1.88135237      0.85242430 Se
atom      -1.55288215      3.81712847      2.64688705 W
atom       0.30572576      4.89770310      4.21101597 Se
atom      -0.00724141      4.70779078      0.81218364 Se
atom      -3.24022293      6.59368631      2.62571509 W
atom      -1.47234755      7.52201048      4.22109503 Se
atom      -1.66057577      7.50692674      0.83823722 Se
atom      -4.91646863      9.40895770      2.61761922 W
atom      -3.24581207     10.34564359      4.27730644 Se
atom      -3.31246874     10.34789929      0.88477686 Se
atom      -6.55837356     12.24294388      2.61027128 W
atom      -4.91835821     13.23237236      4.26988655 Se
atom      -4.94196854     13.16045271      0.87745473 Se
atom       3.24737814      0.97277877      2.56079833 W
atom       4.81591404      1.98853520      4.24410134 Se
atom       4.89642220      1.87813090      0.85634497 Se
atom       1.75247743      3.86777707      2.42573993 W
atom       3.26933622      4.69809346      0.59537851 Se
atom       0.13579235      6.65814910      2.41865441 W
atom       1.61487185      7.55371682      0.58810179 Se
atom      -1.63244535      9.39542880      2.53951321 W
atom       0.02552413     10.25697946      4.22313995 Se
atom      -0.02289389     10.36883490      0.83480038 Se
atom      -3.29604480     12.24003419      2.58350642 W
atom      -1.67615406     13.18259936      4.28831619 Se
atom      -1.66756165     13.17892891      0.88351439 Se
atom       6.49617019      0.94727686      2.61524229 W
atom       8.09952656      1.88922287      4.34454305 Se
atom       8.14835752      1.87571835      0.94113060 Se
atom       4.74623835      3.81980989      2.46334459 W
atom       6.32975755      4.70365467      4.25152439 Se
atom       6.49479936      4.67357882      0.86230192 Se
atom       3.12828248      6.52777474      2.29723271 W
atom       4.56013800      7.36199870      4.17711196 Se
atom       4.83857787      7.51465017      0.76035486 Se
atom       1.58341380      9.27890429      2.44941197 W
atom       3.13397662     10.21964832      4.23741492 Se
atom       3.19740799     10.36490972      0.84776965 Se
atom      -0.03857548     12.22624913      2.58661547 W
atom       1.57238075     13.15505675      4.31596744 Se
atom       1.59241625     13.19116014      0.91240342 Se
atom       9.76021954      0.93752330      2.66591084 W
atom      11.39396123      1.88809905      4.37545819 Se
atom      11.39552766      1.88043465      0.97556132 Se
atom       8.09545410      3.76126272      2.63058488 W
atom       9.72046278      4.71326783      4.34726126 Se
atom       9.75641248      4.68609135      0.94956086 Se
atom       6.38862398      6.55556900      2.55093219 W
atom       8.01613001      7.49696589      4.28928603 Se
atom       8.09359996      7.50320055      0.90897773 Se
atom       4.77359529      9.34307932      2.54381812 W
atom       6.39617478     10.29301169      4.28212122 Se
atom       6.44756119     10.34415341      0.90168266 Se
atom       3.19824068     12.21387817      2.60906503 W
atom       4.82888002     13.15627243      4.32574803 Se
atom       4.83062153     13.18808950      0.92788404 Se
atom      13.02855352      0.94492236      2.67405074 W
atom      14.70384076      1.93407545      4.33527978 Se
atom      14.62978087      1.89431227      0.94757460 Se
atom      11.39243225      3.76874925      2.66692042 W
atom      13.08044506      4.73597840      4.32822548 Se
atom      13.01649204      4.67875327      0.94057125 Se
atom       9.72241038      6.57882800      2.62997802 W
atom      11.39130445      7.53188115      4.30241210 Se
atom      11.35159857      7.49911972      0.90890258 Se
atom       8.06760026      9.38972748      2.60245734 W
atom       9.71594974     10.34877153      4.28533091 Se
atom       9.69900346     10.33020329      0.89368868 Se
atom       6.45206800     12.22345177      2.61552023 W
atom       8.10554682     13.20316757      4.28782122 Se
atom       8.06479284     13.17212273      0.89432489 Se
# 
# What follows is the current estimated Hessian matrix constructed by the BFGS algorithm.
# This is NOT the true Hessian matrix of the system.
# If you do not want this information here, switch it off using the "hessian_to_restart_geometry" keyword.
# 
trust_radius             0.0001688724
hessian_file
