# 
# This is the geometry file that corresponds to the current relaxation step.
# If you do not want this file to be written, set the "write_restart_geometry" flag to .false.
#  aims_uuid : 115D54BB-1F2C-4A0D-AAC1-FCCC001FEE81                                
# 
  set_vacuum_level        52.665000
lattice_vector     16.26900255     -0.00908286     -0.03358006
lattice_vector     -8.18372768     14.12507326     -0.03586982
lattice_vector      0.00012078      0.00070391     97.77232699
atom       0.01670763      0.97230978      2.63993219 W
atom       1.69809160      2.05010056      4.23475719 Se
atom       1.59870042      1.88119163      0.85233304 Se
atom      -1.55282227      3.81719410      2.64689027 W
atom       0.30598802      4.89785614      4.21072103 Se
atom      -0.00728554      4.70773900      0.81195501 Se
atom      -3.24022113      6.59370443      2.62574346 W
atom      -1.47217734      7.52198766      4.22088299 Se
atom      -1.66068026      7.50692363      0.83809665 Se
atom      -4.91648335      9.40896609      2.61777617 W
atom      -3.24569670     10.34562679      4.27731936 Se
atom      -3.31264503     10.34789904      0.88476640 Se
atom      -6.55841720     12.24291453      2.61050168 W
atom      -4.91833082     13.23244145      4.26992754 Se
atom      -4.94204676     13.16033323      0.87755129 Se
atom       3.24739636      0.97273362      2.56073018 W
atom       4.81593092      1.98863345      4.24396457 Se
atom       4.89646473      1.87806848      0.85624621 Se
atom       1.75253179      3.86780768      2.42539575 W
atom       3.26939318      4.69804582      0.59491783 Se
atom       0.13588714      6.65821788      2.41830760 W
atom       1.61485844      7.55385911      0.58765147 Se
atom      -1.63247945      9.39546858      2.53939265 W
atom       0.02551169     10.25700214      4.22300120 Se
atom      -0.02293870     10.36892799      0.83468219 Se
atom      -3.29605128     12.24003481      2.58352889 W
atom      -1.67613906     13.18265963      4.28827210 Se
atom      -1.66758513     13.17892211      0.88345981 Se
atom       6.49618298      0.94726402      2.61521520 W
atom       8.09944280      1.88916035      4.34467143 Se
atom       8.14845907      1.87567518      0.94120132 Se
atom       4.74618458      3.81982331      2.46309743 W
atom       6.32963572      4.70363141      4.25134708 Se
atom       6.49495347      4.67352628      0.86225651 Se
atom       3.12827000      6.52778273      2.29672305 W
atom       4.55993186      7.36187395      4.17683454 Se
atom       4.83874600      7.51472727      0.76009482 Se
atom       1.58338415      9.27886645      2.44919054 W
atom       3.13382551     10.21942562      4.23736211 Se
atom       3.19745742     10.36500963      0.84770371 Se
atom      -0.03858841     12.22631671      2.58657056 W
atom       1.57231532     13.15497318      4.31606768 Se
atom       1.59250607     13.19128702      0.91244010 Se
atom       9.76025000      0.93752741      2.66609295 W
atom      11.39396676      1.88814518      4.37572725 Se
atom      11.39558568      1.88046695      0.97576803 Se
atom       8.09548950      3.76118937      2.63068238 W
atom       9.72046035      4.71323163      4.34744984 Se
atom       9.75648067      4.68604020      0.94975270 Se
atom       6.38858412      6.55556907      2.55082962 W
atom       8.01599227      7.49687726      4.28933767 Se
atom       8.09370060      7.50321678      0.90905606 Se
atom       4.77356070      9.34304299      2.54372694 W
atom       6.39601380     10.29288477      4.28222868 Se
atom       6.44762440     10.34422995      0.90179228 Se
atom       3.19819360     12.21384005      2.60917025 W
atom       4.82880479     13.15623227      4.32593702 Se
atom       4.83062700     13.18808503      0.92813211 Se
atom      13.02854293      0.94494098      2.67427274 W
atom      14.70392408      1.93419302      4.33537694 Se
atom      14.62973958      1.89426648      0.94772067 Se
atom      11.39246930      3.76876916      2.66713395 W
atom      13.08054312      4.73606554      4.32831167 Se
atom      13.01644762      4.67873937      0.94068686 Se
atom       9.72240402      6.57880272      2.63014026 W
atom      11.39136569      7.53187180      4.30255888 Se
atom      11.35154305      7.49913942      0.90904811 Se
atom       8.06756099      9.38970456      2.60261246 W
atom       9.71591340     10.34873262      4.28555503 Se
atom       9.69896653     10.33021674      0.89390382 Se
atom       6.45203287     12.22341953      2.61575348 W
atom       8.10550800     13.20325194      4.28804447 Se
atom       8.06476838     13.17206766      0.89455482 Se
# 
# What follows is the current estimated Hessian matrix constructed by the BFGS algorithm.
# This is NOT the true Hessian matrix of the system.
# If you do not want this information here, switch it off using the "hessian_to_restart_geometry" keyword.
# 
trust_radius             0.0001653316
hessian_file
