# 
# This is the geometry file that corresponds to the current relaxation step.
# If you do not want this file to be written, set the "write_restart_geometry" flag to .false.
#  aims_uuid : AE899CC4-B83A-442A-AD75-01FFC29DEAFE                                
# 
  set_vacuum_level        52.633144
lattice_vector     16.23865900      0.00000000      0.00000000
lattice_vector     -8.11989635     14.06215255      0.00000000
lattice_vector      0.00000000      0.00000000     99.93951163
atom_frac       0.03413935      0.06804125      0.02665000 Mo
atom_frac       0.16786211      0.13572433      0.04314961 Se
atom_frac       0.16786211      0.13572433      0.01015039 Se
atom_frac       0.03634867      0.27012628      0.02665000 Mo
atom_frac       0.17477986      0.34269283      0.04308599 Se
atom_frac       0.17477986      0.34269283      0.01021401 Se
atom_frac       0.03635082      0.46622339      0.02665000 Mo
atom_frac       0.17478199      0.53208203      0.04308563 Se
atom_frac       0.17478199      0.53208203      0.01021437 Se
atom_frac       0.03414265      0.66610210      0.02665000 Mo
atom_frac       0.16786836      0.73213527      0.04314933 Se
atom_frac       0.16786836      0.73213527      0.01015067 Se
atom_frac       0.03333279      0.86666661      0.02665000 Mo
atom_frac       0.16727141      0.93363399      0.04312279 Se
atom_frac       0.16727141      0.93363399      0.01017721 Se
atom_frac       0.23389968      0.06804165      0.02665000 Mo
atom_frac       0.36725042      0.13548059      0.04314071 Se
atom_frac       0.36725042      0.13548059      0.01015929 Se
atom_frac       0.23536559      0.27073449      0.02665000 Mo
atom_frac       0.36791360      0.34269197      0.04308574 Se
atom_frac       0.36791360      0.34269197      0.01021426 Se
atom_frac       0.25238683      0.47619128      0.02665000 Mo
atom_frac       0.23537638      0.66463044      0.02665000 Mo
atom_frac       0.36792249      0.72522020      0.04308562 Se
atom_frac       0.36792249      0.72522020      0.01021438 Se
atom_frac       0.23390191      0.86586070      0.02665000 Mo
atom_frac       0.36725492      0.93176914      0.04314058 Se
atom_frac       0.36725492      0.93176914      0.01015942 Se
atom_frac       0.43320723      0.06660470      0.02665000 Mo
atom_frac       0.56646158      0.13323288      0.04318127 Se
atom_frac       0.56646158      0.13323288      0.01011873 Se
atom_frac       0.43377545      0.27012455      0.02665000 Mo
atom_frac       0.56606431      0.33393507      0.04320279 Se
atom_frac       0.56606431      0.33393507      0.01009721 Se
atom_frac       0.42380331      0.47619219      0.02665000 Mo
atom_frac       0.55730063      0.53208305      0.04308563 Se
atom_frac       0.55730063      0.53208305      0.01021437 Se
atom_frac       0.42380105      0.64760227      0.02665000 Mo
atom_frac       0.55729739      0.72521815      0.04308588 Se
atom_frac       0.55729739      0.72521815      0.01021412 Se
atom_frac       0.43378308      0.86365412      0.02665000 Mo
atom_frac       0.56606922      0.93213676      0.04320291 Se
atom_frac       0.56606922      0.93213676      0.01009709 Se
atom_frac       0.63306561      0.06613227      0.02665000 Mo
atom_frac       0.76677275      0.13323270      0.04318126 Se
atom_frac       0.76677275      0.13323270      0.01011874 Se
atom_frac       0.63306429      0.26694100      0.02665000 Mo
atom_frac       0.76677174      0.33354196      0.04318125 Se
atom_frac       0.76677174      0.33354196      0.01011875 Se
atom_frac       0.62987153      0.46622428      0.02665000 Mo
atom_frac       0.76451623      0.53274885      0.04314063 Se
atom_frac       0.76451623      0.53274885      0.01015937 Se
atom_frac       0.62925405      0.66463215      0.02665000 Mo
atom_frac       0.76426832      0.73213591      0.04314936 Se
atom_frac       0.76426832      0.73213591      0.01015064 Se
atom_frac       0.62986821      0.86365201      0.02665000 Mo
atom_frac       0.76451394      0.93176861      0.04314055 Se
atom_frac       0.76451394      0.93176861      0.01015945 Se
atom_frac       0.83339696      0.06660488      0.02665000 Mo
atom_frac       0.96823160      0.13548183      0.04314068 Se
atom_frac       0.96823160      0.13548183      0.01015932 Se
atom_frac       0.83387621      0.26694092      0.02665000 Mo
atom_frac       0.96787190      0.33393499      0.04320286 Se
atom_frac       0.96787190      0.33393499      0.01009714 Se
atom_frac       0.83339841      0.46679767      0.02665000 Mo
atom_frac       0.96823342      0.53274860      0.04314062 Se
atom_frac       0.96823342      0.53274860      0.01015938 Se
atom_frac       0.83195715      0.66610156      0.02665000 Mo
atom_frac       0.96636386      0.73272768      0.04312282 Se
atom_frac       0.96636386      0.73272768      0.01017718 Se
atom_frac       0.83195653      0.86586136      0.02665000 Mo
atom_frac       0.96636275      0.93363385      0.04312277 Se
atom_frac       0.96636275      0.93363385      0.01017723 Se
# 
# What follows is the current estimated Hessian matrix constructed by the BFGS algorithm.
# This is NOT the true Hessian matrix of the system.
# If you do not want this information here, switch it off using the "hessian_to_restart_geometry" keyword.
# 
