#=======================================================
# FHI-aims file: geometry_monolayer.in
# Created using the Atomic Simulation Environment (ASE)
# Wed Jun  2 16:13:52 2021
#=======================================================
lattice_vector 3.1800000000000002 0.0000000000000000 0.0000000000000000 
lattice_vector -1.5900000000000001 2.7539607840345148 0.0000000000000000 
lattice_vector 0.0000000000000000 -0.0000000000000000 100.00000
atom 0.0000000000000000 0.9179869280115049 2.6000000000000001 W
atom 1.5900000000000001 1.8359738560230099 4.2000000000000002 S
atom 1.5900000000000001 1.8359738560230099 1.0000000000000000 S
