# 
# This is the geometry file that corresponds to the current relaxation step.
# If you do not want this file to be written, set the "write_restart_geometry" flag to .false.
#  aims_uuid : 12D2B7DD-FE76-4550-A495-2E9EB592DE44                                
# 
  set_vacuum_level        53.046948
lattice_vector     15.66599045      0.00000000      0.00000000
lattice_vector     -7.83292280     13.56702030      0.00000000
lattice_vector      0.00000000      0.00000000     99.99930752
atom       1.56915303      0.90632275      3.10329060 Mo
atom       0.00001410      1.81472216      4.64785372 S
atom       0.00000864      1.80627404      1.55855658 S
atom       0.00001625      3.61896164      3.09643398 Mo
atom      -1.58510667      4.52645954      4.63108267 S
atom      -1.56843530      4.51319355      1.54354783 S
atom      -1.57326817      6.32748258      3.07823826 Mo
atom      -3.16166988      7.21965891      4.60624853 S
atom      -3.13366168      7.23584513      1.52499296 S
atom      -3.14013833      9.04135453      3.07825995 Mo
atom      -4.70579102      9.93160884      4.63109131 S
atom      -4.70892705      9.95268609      1.54357167 S
atom      -4.69914633     11.75812519      3.09645957 Mo
atom      -6.26165999     12.66023954      4.64786525 S
atom      -6.26895231     12.66444157      1.55855851 S
atom       4.70694336      0.92126643      3.08118684 Mo
atom       3.14902690      1.81845584      4.63808592 S
atom       3.12809629      1.80633745      1.54802669 S
atom       3.15102551      3.61623267      3.08115473 Mo
atom       1.58515866      4.52645343      4.63108160 S
atom       1.56848375      4.51319294      1.54354890 S
atom       1.57333434      6.32747920      3.07824219 Mo
atom       0.00003956      7.23387160      4.62036087 S
atom       0.00004275      7.23194756      1.53553982 S
atom       0.00004627      9.04506063      3.07744691 Mo
atom      -1.56849320      9.95062744      4.62038010 S
atom      -1.57017309      9.95162475      1.53557073 S
atom      -1.56682209     11.76635737      3.07829059 Mo
atom      -3.12064334     12.67709985      4.63111705 S
atom      -3.14044692     12.66927918      1.54358817 S
atom       7.83299391      0.93653895      3.04158730 Mo
atom       6.31602976      1.88465518      4.58798851 S
atom       6.25059166      1.83126344      1.49659894 S
atom       6.31923383      3.64871699      3.00334492 Mo
atom       4.78991007      4.52800624      4.58795033 S
atom       4.71097599      4.49799966      1.49657165 S
atom       4.72729197      6.31579811      3.04154024 Mo
atom       3.16175449      7.21965032      4.60625585 S
atom       3.13374784      7.23584355      1.52500393 S
atom       3.14023409      9.04135270      3.07827191 Mo
atom       1.56859772      9.95062460      4.62038723 S
atom       1.57028754      9.95162393      1.53557824 S
atom       1.56694212     11.76635732      3.07829854 Mo
atom       0.00006454     12.69582478      4.60630292 S
atom       0.00007110     12.66348493      1.52505897 S
atom      10.95904591      0.92127579      3.08120154 Mo
atom       9.34996784      1.88466686      4.58799654 S
atom       9.41541720      1.83127459      1.49661221 S
atom       9.34677515      3.64872813      3.00335784 Mo
atom       7.83301457      4.52269334      1.43957597 S
atom       7.83302682      6.27065804      3.00333848 Mo
atom       6.30690642      7.15543442      4.58794152 S
atom       6.29341558      7.23882217      1.49657949 S
atom       6.27711956      9.03066615      3.08117232 Mo
atom       4.70590484      9.93160404      4.63110448 S
atom       4.70903833      9.95268450      1.54358510 S
atom       4.69926877     11.75812522      3.09647284 Mo
atom       3.12077620     12.67710337      4.63112917 S
atom       3.14058415     12.66928438      1.54360259 S
atom      14.09684422      0.90632618      3.10329757 Mo
atom      12.51698359      1.81846431      4.63809542 S
atom      12.53791006      1.80633932      1.54803674 S
atom      12.51499962      3.61623783      3.08115900 Mo
atom      10.87613004      4.52801376      4.58795039 S
atom      10.95505755      4.49799813      1.49657787 S
atom      10.93877317      6.31580817      3.04153088 Mo
atom       9.35917218      7.15544733      4.58793218 S
atom       9.37265822      7.23882328      1.49657380 S
atom       9.38897113      9.03067316      3.08116182 Mo
atom       7.83305535      9.93127855      4.63808437 S
atom       7.83304771      9.95545293      1.54802241 S
atom       7.83305760     11.75553776      3.10329415 Mo
atom       6.26180279     12.66024100      4.64787209 S
atom       6.26908427     12.66444300      1.55856661 S
# 
# What follows is the current estimated Hessian matrix constructed by the BFGS algorithm.
# This is NOT the true Hessian matrix of the system.
# If you do not want this information here, switch it off using the "hessian_to_restart_geometry" keyword.
# 
trust_radius             0.0006968861
hessian_file
