# 
# This is the geometry file that corresponds to the current relaxation step.
# If you do not want this file to be written, set the "write_restart_geometry" flag to .false.
#  aims_uuid : E2BC4262-E070-4209-A923-95BF1E917182                                
# 
  set_vacuum_level        52.600000
lattice_vector     15.69850138      0.00154470     -0.00476368
lattice_vector     -7.84785001     13.59600461     -0.00475618
lattice_vector      0.00011918      0.00020538     99.79209488
atom       0.00047177      0.92176767      2.59390866 W
atom       1.57054016      1.84262613      4.17604721 S
atom       1.56963335      1.84106046      1.00980371 S
atom      -1.54781591      3.65894802      2.59319828 W
atom       0.04299441      4.63626743      4.17542670 S
atom       0.04180036      4.63455205      1.00878018 S
atom      -3.09942913      6.34658993      2.59219630 W
atom      -1.45853892      7.23681415      4.17453230 S
atom      -1.45952961      7.23524564      1.00789045 S
atom      -4.69535499      9.05658604      2.59101433 W
atom      -3.11376137      9.95710841      4.17329395 S
atom      -3.11448704      9.95553729      1.00707576 S
atom      -6.27819536     11.78339501      2.58985110 W
atom      -4.70231987     12.69412495      4.17170697 S
atom      -4.70286673     12.69253102      1.00646230 S
atom       3.13964130      0.92224185      2.59293526 W
atom       4.70410929      1.83643760      4.17813531 S
atom       4.70357712      1.83482800      1.00641614 S
atom       1.57044571      3.67889337      2.59210657 W
atom       3.09892368      4.63687203      4.17456455 S
atom       3.09803665      4.63517819      1.00784069 S
atom       0.15707682      6.43548830      2.59111295 W
atom      -1.52329280      9.03782978      2.59032926 W
atom       0.06980277      9.88358350      4.17288422 S
atom       0.06879811      9.88216418      1.00609484 S
atom      -3.12543117     11.77567797      2.58937236 W
atom      -1.55218369     12.67463818      4.17453749 S
atom      -1.55285995     12.67313066      1.00281734 S
atom       6.27625887      0.90512738      2.59257069 W
atom       7.84769644      1.81307745      4.17795439 S
atom       7.84665589      1.81139707      1.00525422 S
atom       4.68864188      3.65994196      2.59129061 W
atom       6.26652643      4.54195580      4.17635965 S
atom       6.26569954      4.54016513      1.00444725 S
atom       2.98396085      6.43598437      2.59031645 W
atom       4.60053486      7.23782670      4.17275041 S
atom       4.59965439      7.23606442      1.00612476 S
atom       1.57077285      8.88387987      2.58944381 W
atom       3.07270054      9.88423255      4.17183670 S
atom       3.07172773      9.88275301      1.00516487 S
atom       0.01944432     11.74830135      2.58865713 W
atom       1.57161022     12.67505758      4.17356346 S
atom       1.57059692     12.67345749      1.00186392 S
atom       9.41928878      0.90011346      2.59157387 W
atom      10.99208277      1.81332578      4.17686533 S
atom      10.99094506      1.81178951      1.00423408 S
atom       7.84354195      3.63007075      2.59053651 W
atom       9.42000056      4.53676522      4.17595676 S
atom       9.41920699      4.53487976      1.00325504 S
atom       6.24047082      6.34775124      2.58942118 W
atom       7.82838019      7.24761971      4.17429964 S
atom       7.82737958      7.24559188      1.00243186 S
atom       4.66482911      9.03869726      2.58836440 W
atom       6.25624774      9.95820876      4.17038026 S
atom       6.25511087      9.95652408      1.00407373 S
atom       3.12270550     11.74875937      2.58762565 W
atom       4.69536374     12.67532626      4.17244640 S
atom       4.69409250     12.67374680      1.00063647 S
atom      12.56231966      0.90566064      2.59039972 W
atom      14.13548329      1.83699811      4.17524943 S
atom      14.13420392      1.83547158      1.00340861 S
atom      10.99554793      3.63036983      2.58968901 W
atom      12.57381047      4.54232031      4.17444545 S
atom      12.57263153      4.54046284      1.00265853 S
atom       9.41969367      6.34986102      2.58845554 W
atom      11.01207577      7.24778436      4.17323444 S
atom      11.01106556      7.24577316      1.00146913 S
atom       7.83681804      9.05790516      2.58716923 W
atom       9.42051690      9.96637561      4.16870704 S
atom       9.41954896      9.96453005      1.00344457 S
atom       6.26754521     11.77658718      2.58629329 W
atom       7.84536942     12.69520515      4.16786697 S
atom       7.84420900     12.69371475      1.00253946 S
# 
# What follows is the current estimated Hessian matrix constructed by the BFGS algorithm.
# This is NOT the true Hessian matrix of the system.
# If you do not want this information here, switch it off using the "hessian_to_restart_geometry" keyword.
# 
trust_radius             0.0003718187
hessian_file
