# 
# This is the geometry file that corresponds to the current relaxation step.
# If you do not want this file to be written, set the "write_restart_geometry" flag to .false.
#  aims_uuid : 908C295C-7A0F-4FD8-A4D3-BDBAF8836512                                
# 
  set_vacuum_level        52.600000
lattice_vector     15.69850138      0.00154470     -0.00476368
lattice_vector     -7.84785001     13.59600461     -0.00475618
lattice_vector      0.00011918      0.00020538     99.79209488
atom       0.00048660      0.92183050      2.59392587 W
atom       1.57055485      1.84262904      4.17607677 S
atom       1.56961414      1.84105693      1.00984299 S
atom      -1.54785235      3.65901676      2.59320194 W
atom       0.04292486      4.63629034      4.17542699 S
atom       0.04183045      4.63459792      1.00877752 S
atom      -3.09930863      6.34666873      2.59221553 W
atom      -1.45834700      7.23689012      4.17459479 S
atom      -1.45938562      7.23523496      1.00783650 S
atom      -4.69523610      9.05660897      2.59103832 W
atom      -3.11360787      9.95710895      4.17332975 S
atom      -3.11435717      9.95550621      1.00708085 S
atom      -6.27813704     11.78335592      2.58991016 W
atom      -4.70219839     12.69408762      4.17172488 S
atom      -4.70286500     12.69251523      1.00651596 S
atom       3.13960802      0.92222894      2.59300429 W
atom       4.70408864      1.83641918      4.17812478 S
atom       4.70349262      1.83476606      1.00641706 S
atom       1.57042513      3.67887688      2.59208248 W
atom       3.09879708      4.63685673      4.17459301 S
atom       3.09795424      4.63517828      1.00780629 S
atom       0.15712758      6.43545420      2.59111382 W
atom      -1.52313966      9.03783375      2.59029592 W
atom       0.06987856      9.88360086      4.17288920 S
atom       0.06893632      9.88215792      1.00606773 S
atom      -3.12534462     11.77561753      2.58930519 W
atom      -1.55210326     12.67464192      4.17444552 S
atom      -1.55283372     12.67314970      1.00274889 S
atom       6.27623912      0.90513037      2.59248667 W
atom       7.84757887      1.81312136      4.17791187 S
atom       7.84662989      1.81143033      1.00524364 S
atom       4.68852327      3.65990511      2.59131126 W
atom       6.26637307      4.54193561      4.17636830 S
atom       6.26558118      4.54016635      1.00450543 S
atom       2.98389737      6.43592051      2.59028013 W
atom       4.60041552      7.23772844      4.17276024 S
atom       4.59948470      7.23596644      1.00601011 S
atom       1.57076789      8.88384243      2.58948842 W
atom       3.07271621      9.88423020      4.17184941 S
atom       3.07167609      9.88266147      1.00518755 S
atom       0.01948099     11.74830087      2.58865699 W
atom       1.57160082     12.67501897      4.17359849 S
atom       1.57053927     12.67348059      1.00180634 S
atom       9.41924184      0.90012189      2.59155606 W
atom      10.99206072      1.81337322      4.17689410 S
atom      10.99092028      1.81174818      1.00421529 S
atom       7.84348041      3.63011585      2.59056907 W
atom       9.42002472      4.53679001      4.17589850 S
atom       9.41908729      4.53490210      1.00323573 S
atom       6.24037285      6.34774539      2.58939790 W
atom       7.82835902      7.24757770      4.17426031 S
atom       7.82739238      7.24565693      1.00245268 S
atom       4.66472909      9.03860543      2.58835975 W
atom       6.25615190      9.95819524      4.17039676 S
atom       6.25503106      9.95647144      1.00413162 S
atom       3.12270431     11.74873424      2.58759455 W
atom       4.69534163     12.67531977      4.17241802 S
atom       4.69409325     12.67379017      1.00062515 S
atom      12.56229451      0.90569310      2.59040393 W
atom      14.13546704      1.83706914      4.17522166 S
atom      14.13424868      1.83552288      1.00342918 S
atom      10.99558042      3.63036188      2.58961922 W
atom      12.57382133      4.54237802      4.17442589 S
atom      12.57268737      4.54057009      1.00262643 S
atom       9.41972835      6.34988914      2.58845200 W
atom      11.01217968      7.24778591      4.17326123 S
atom      11.01119167      7.24585081      1.00150673 S
atom       7.83677826      9.05790668      2.58719798 W
atom       9.42054344      9.96630041      4.16876756 S
atom       9.41959297      9.96447801      1.00353395 S
atom       6.26752413     11.77659836      2.58629772 W
atom       7.84536986     12.69524712      4.16785384 S
atom       7.84424680     12.69371123      1.00260444 S
# 
# What follows is the current estimated Hessian matrix constructed by the BFGS algorithm.
# This is NOT the true Hessian matrix of the system.
# If you do not want this information here, switch it off using the "hessian_to_restart_geometry" keyword.
# 
trust_radius             0.0001855506
hessian_file
