# 
# This is the geometry file that corresponds to the current relaxation step.
# If you do not want this file to be written, set the "write_restart_geometry" flag to .false.
#  aims_uuid : 5726DC34-7715-4C01-AC61-817022B4514B                                
# 
  set_vacuum_level        52.600000
lattice_vector      3.15185552      0.00000000     -0.00000000
lattice_vector     -1.57602201      2.72943768     -0.00000000
lattice_vector      0.00000000     -0.00000000     99.83693550
atom      -0.00005540      0.90968480      2.59621834 W
atom       1.57587934      1.81943570      4.15010284 S
atom       1.57587685      1.81944607      1.04238138 S
# 
# What follows is the current estimated Hessian matrix constructed by the BFGS algorithm.
# This is NOT the true Hessian matrix of the system.
# If you do not want this information here, switch it off using the "hessian_to_restart_geometry" keyword.
# 
trust_radius             0.0011045559
hessian_file
