# 
# This is the geometry file that corresponds to the current relaxation step.
# If you do not want this file to be written, set the "write_restart_geometry" flag to .false.
#  aims_uuid : 8C81BF1B-76F4-4053-A904-D69260D383E0                                
# 
  set_vacuum_level        52.600000
lattice_vector      3.15173874     -0.00000000     -0.00000000
lattice_vector     -1.57580809      2.72906721      0.00000000
lattice_vector      0.00000000     -0.00000000     99.83705576
atom      -0.00001748      0.90961511      2.59634249 W
atom       1.57615827      1.81825681      4.15079620 S
atom       1.57570240      1.82007727      1.04157324 S
# 
# What follows is the current estimated Hessian matrix constructed by the BFGS algorithm.
# This is NOT the true Hessian matrix of the system.
# If you do not want this information here, switch it off using the "hessian_to_restart_geometry" keyword.
