# 
# This is the geometry file that corresponds to the current relaxation step.
# If you do not want this file to be written, set the "write_restart_geometry" flag to .false.
#  aims_uuid : B5A00828-F6F6-4FFA-AEEC-52A85158E138                                
# 
lattice_vector     15.90000000      0.00000000      0.00000000
lattice_vector     -7.95000000     13.76980390      0.00000000
lattice_vector      0.00000000      0.00000000    100.00000000
atom      -0.01311183      0.90383916      2.61030100 Mo
atom       1.58999444      1.80374233      4.13449050 S
atom       1.57316168      1.76684474      1.06984570 S
atom      -1.58018698      3.68069485      2.60268998 Mo
atom       0.04239337      4.60183028      4.11691530 S
atom       0.02905277      4.62529424      1.08875332 S
atom      -3.20139434      6.42625243      2.59487821 Mo
atom      -1.66097981      7.36851149      4.13549316 S
atom      -1.62013379      7.36444254      1.07090543 S
atom      -4.77299982      9.18587210      2.60245937 Mo
atom      -3.19935352     10.10940778      4.14155559 S
atom      -3.20005599     10.10817983      1.06345408 S
atom      -6.35890692     11.93276745      2.60250301 Mo
atom      -4.77375413     12.83368191      4.14166523 S
atom      -4.77225663     12.83386558      1.06351921 S
atom       3.17697399      0.87794077      2.60270923 Mo
atom       4.78087645      1.76664522      4.13562144 S
atom       4.76382938      1.80398054      1.07100973 S
atom       1.62806665      3.60901765      2.56383207 Mo
atom       3.22801951      4.47074844      4.13831557 S
atom       3.12588345      4.47141569      1.06796668 S
atom      -0.03788657      6.49490123      2.64190149 Mo
atom       1.45771090      7.36089224      4.13760368 S
atom       1.50887136      7.44936105      1.06752841 S
atom      -1.62874095      9.20181168      2.60250527 Mo
atom      -0.03326836     10.11310404      4.13412224 S
atom      -0.05717849     10.14639853      1.06950944 S
atom      -3.18710504     11.93276023      2.60254413 Mo
atom      -1.59724909     12.85416592      4.13838790 S
atom      -1.59422980     12.84888401      1.06667835 S
atom       6.36702819      0.90383812      2.59492885 Mo
atom       7.94478208      1.84286022      4.13005668 S
atom       7.95035487      1.84454101      1.06800201 S
atom       4.72575709      3.60906021      2.64191194 Mo
atom       6.32494102      4.62550035      4.11655252 S
atom       6.31128703      4.60178341      1.08844409 S
atom       4.84499636      7.44934394      4.13695404 S
atom       4.89673734      7.36120720      1.06665448 S
atom       1.51094146      9.17766846      2.56315210 Mo
atom       3.16351499     10.05445880      4.11629584 S
atom       3.19045222     10.05460404      1.08806077 S
atom      -0.01135733     11.95158212      2.61011904 Mo
atom       1.59499152     12.85254202      4.13691571 S
atom       1.59058817     12.84860067      1.07491361 S
atom       9.53910163      0.92064270      2.60248398 Mo
atom      11.12691509      1.83731662      4.13537981 S
atom      11.12693910      1.83736355      1.06962822 S
atom       7.93401225      3.68072006      2.60250822 Mo
atom       9.53237486      4.58471754      4.13697813 S
atom       9.53103927      4.59037580      1.07499131 S
atom       6.39181461      6.49498667      2.56306533 Mo
atom       7.97412641      7.36455009      4.13396671 S
atom       8.01500695      7.36846116      1.06939976 S
atom       4.84304498      9.17774425      2.64115318 Mo
atom       6.41099759     10.14631144      4.13515846 S
atom       6.38747824     10.11331452      1.07052366 S
atom       3.17694305     11.92032203      2.60230891 Mo
atom       4.76321843     12.84846054      4.12988940 S
atom       4.75898205     12.85268248      1.06788017 S
atom      12.71475440      0.92063102      2.60250011 Mo
atom      14.30340125      1.84445297      4.13715024 S
atom      14.30918755      1.84289049      1.07508973 S
atom      11.12691349      3.67077487      2.60252351 Mo
atom      12.72274782      4.59042998      4.13008625 S
atom      12.72152839      4.58464149      1.06809421 S
atom       9.55535538      6.42627312      2.61007676 Mo
atom      11.13004115      7.34835648      4.13832558 S
atom      11.12394607      7.34832919      1.06661951 S
atom       7.98275398      9.20185062      2.60229205 Mo
atom       9.55401896     10.10811436      4.14147200 S
atom       9.55343253     10.10950919      1.06335864 S
atom       6.36530404     11.95160026      2.59471091 Mo
atom       7.94808363     12.84873615      4.13835960 S
atom       7.95131909     12.85433977      1.06665327 S
# 
# What follows is the current estimated Hessian matrix constructed by the BFGS algorithm.
# This is NOT the true Hessian matrix of the system.
# If you do not want this information here, switch it off using the "hessian_to_restart_geometry" keyword.
# 
trust_radius             0.0174901070
hessian_file
