# 
# This is the geometry file that corresponds to the current relaxation step.
# If you do not want this file to be written, set the "write_restart_geometry" flag to .false.
#  aims_uuid : 3A92DB53-3A2D-42C8-AE9A-FF92B326440A                                
# 
lattice_vector     -0.14182262      1.97491644      1.94415125
lattice_vector      2.06814806     -0.07709147      2.01942371
lattice_vector      2.05359383      2.03614597     -0.03475872
atom       0.00000000      0.00000000      0.00000000 Au
# 
# What follows is the current estimated Hessian matrix constructed by the BFGS algorithm.
# This is NOT the true Hessian matrix of the system.
# If you do not want this information here, switch it off using the "hessian_to_restart_geometry" keyword.
# 
trust_radius             0.1000000015
hessian_file
