# 
# This is the geometry file that corresponds to the current relaxation step.
# If you do not want this file to be written, set the "write_restart_geometry" flag to .false.
#  aims_uuid : E50C2DDD-E894-41E6-A5E7-4C619F1D4F60                                
# 
lattice_vector      0.00000000      2.07397456      2.07397456
lattice_vector      2.07397456      0.00000000      2.07397456
lattice_vector      2.07397456      2.07397456      0.00000000
atom       0.00000000      0.00000000      0.00000000 Au
# 
# What follows is the current estimated Hessian matrix constructed by the BFGS algorithm.
# This is NOT the true Hessian matrix of the system.
# If you do not want this information here, switch it off using the "hessian_to_restart_geometry" keyword.
# 
trust_radius             0.2000000030
hessian_file
