# 
# This is the geometry file that corresponds to the current relaxation step.
# If you do not want this file to be written, set the "write_restart_geometry" flag to .false.
#  aims_uuid : 7EC674EF-AA44-42F9-A128-6F5EB7226874                                
# 
  set_vacuum_level        52.585251
lattice_vector     16.23865900      0.00000000      0.00000000
lattice_vector     -8.11989635     14.06215255      0.00000000
lattice_vector      0.00000000      0.00000000     99.93951163
atom_frac       0.03369612      0.06736830      0.02675372 Mo
atom_frac       0.16817641      0.13635173      0.04309603 Se
atom_frac       0.16668366      0.13336652      0.01010778 Se
atom_frac       0.03467449      0.26819245      0.02674291 Mo
atom_frac       0.17370868      0.34033520      0.04282202 Se
atom_frac       0.16657802      0.33503902      0.00977083 Se
atom_frac       0.03467451      0.46648343      0.02674252 Mo
atom_frac       0.17370761      0.53336849      0.04282161 Se
atom_frac       0.16658279      0.53153557      0.00977076 Se
atom_frac       0.03369861      0.66633118      0.02675333 Mo
atom_frac       0.16817846      0.73182113      0.04309576 Se
atom_frac       0.16668844      0.73331385      0.01010765 Se
atom_frac       0.03333343      0.86666701      0.02675621 Mo
atom_frac       0.16693941      0.93346794      0.04326937 Se
atom_frac       0.16696817      0.93348216      0.01024368 Se
atom_frac       0.23366964      0.06736776      0.02675370 Mo
atom_frac       0.36649910      0.13478621      0.04336386 Se
atom_frac       0.36734643      0.13378806      0.01031233 Se
atom_frac       0.23469813      0.26939938      0.02630097 Mo
atom_frac       0.36662691      0.34033268      0.04282195 Se
atom_frac       0.36846106      0.33503946      0.00977102 Se
atom_frac       0.24053612      0.47026647      0.02574238 Mo
atom_frac       0.36666754      0.53333281      0.00857186 Se
atom_frac       0.23470433      0.66529969      0.02630094 Mo
atom_frac       0.36663354      0.72629438      0.04282161 Se
atom_frac       0.36846635      0.73342274      0.00977051 Se
atom_frac       0.23367161      0.86630276      0.02675363 Mo
atom_frac       0.36650167      0.93171229      0.04336377 Se
atom_frac       0.36734908      0.93355698      0.01031227 Se
atom_frac       0.43326788      0.06663533      0.02694660 Mo
atom_frac       0.56626542      0.13313379      0.04355522 Se
atom_frac       0.56687645      0.13343803      0.01047438 Se
atom_frac       0.43351753      0.26819154      0.02674287 Mo
atom_frac       0.56585076      0.33415136      0.04343596 Se
atom_frac       0.56690570      0.33309284      0.01032743 Se
atom_frac       0.42972845      0.47026592      0.02574259 Mo
atom_frac       0.55966168      0.53336866      0.04282172 Se
atom_frac       0.56495321      0.53153597      0.00977096 Se
atom_frac       0.42973367      0.65946954      0.02574194 Mo
atom_frac       0.55965946      0.72629204      0.04282178 Se
atom_frac       0.56495735      0.73342288      0.00977054 Se
atom_frac       0.43352135      0.86532940      0.02674277 Mo
atom_frac       0.56585202      0.93170378      0.04343621 Se
atom_frac       0.56690847      0.93381546      0.01032742 Se
atom_frac       0.63319406      0.06638853      0.02701189 Mo
atom_frac       0.76686960      0.13313404      0.04355525 Se
atom_frac       0.76656321      0.13343817      0.01047444 Se
atom_frac       0.63319223      0.26680910      0.02701176 Mo
atom_frac       0.76686907      0.33373776      0.04355501 Se
atom_frac       0.76656201      0.33312340      0.01047422 Se
atom_frac       0.63180757      0.46648456      0.02674259 Mo
atom_frac       0.76521258      0.53349981      0.04336350 Se
atom_frac       0.76620845      0.53265207      0.01031191 Se
atom_frac       0.63059567      0.66530103      0.02630098 Mo
atom_frac       0.76364430      0.73182162      0.04309584 Se
atom_frac       0.76662692      0.73331452      0.01010764 Se
atom_frac       0.63180623      0.86532879      0.02674288 Mo
atom_frac       0.76521096      0.93171209      0.04336391 Se
atom_frac       0.76620829      0.93355706      0.01031234 Se
atom_frac       0.83336554      0.06663439      0.02694668 Mo
atom_frac       0.96828793      0.13478719      0.04336392 Se
atom_frac       0.96644177      0.13378858      0.01031239 Se
atom_frac       0.83361554      0.26681051      0.02701179 Mo
atom_frac       0.96830178      0.33415119      0.04343597 Se
atom_frac       0.96618795      0.33309173      0.01032746 Se
atom_frac       0.83336774      0.46673550      0.02694617 Mo
atom_frac       0.96828857      0.53350031      0.04336348 Se
atom_frac       0.96644455      0.53265256      0.01031186 Se
atom_frac       0.83263020      0.66632985      0.02675335 Mo
atom_frac       0.96652955      0.73305880      0.04326913 Se
atom_frac       0.96651591      0.73303187      0.01024345 Se
atom_frac       0.83262895      0.86630352      0.02675368 Mo
atom_frac       0.96652902      0.93346753      0.04326933 Se
atom_frac       0.96651415      0.93348172      0.01024379 Se
# 
# What follows is the current estimated Hessian matrix constructed by the BFGS algorithm.
# This is NOT the true Hessian matrix of the system.
# If you do not want this information here, switch it off using the "hessian_to_restart_geometry" keyword.
# 
