# 
# This is the geometry file that corresponds to the current relaxation step.
# If you do not want this file to be written, set the "write_restart_geometry" flag to .false.
#  aims_uuid : EDC2F1D8-C9D5-4082-ADDA-28EDDC1F645F                                
# 
lattice_vector     16.60000000      0.00000000      0.00000000
lattice_vector     -8.30000000     14.37602170      0.00000000
lattice_vector      0.00000000      0.00000000    100.00000000
atom      -0.01055794      0.94483500      2.66500000 Mo
atom       1.65318845      1.90303615      4.33017567 Se
atom       1.65318845      1.90303615      0.99982433 Se
atom      -1.64808712      3.84045886      2.66500000 Mo
atom       0.02111093      4.80418365      4.33396374 Se
atom       0.02111093      4.80418365      0.99603626 Se
atom      -3.33700128      6.70644020      2.66500000 Mo
atom      -1.67529015      7.66817494      4.33017125 Se
atom      -1.67529015      7.66817494      0.99982875 Se
atom      -4.98000001      9.58497377      2.66500000 Mo
atom      -3.32347105     10.54441775      4.33826846 Se
atom      -3.32347105     10.54441775      0.99173154 Se
atom      -6.63915705     12.45871527      2.66500000 Mo
atom      -4.98001228     13.41360287      4.33826884 Se
atom      -4.98001228     13.41360287      0.99173116 Se
atom       3.31999756      0.94751392      2.66500000 Mo
atom       4.98679390      1.90305148      4.33017475 Se
atom       4.98679390      1.90305148      0.99982525 Se
atom       1.68632425      3.83256816      2.66500000 Mo
atom       3.31998688      4.75522840      4.34179093 Se
atom       3.31998688      4.75522840      0.98820907 Se
atom       0.01228223      6.73212239      2.66500000 Mo
atom       1.62812197      7.68567022      4.34182398 Se
atom       1.62812197      7.68567022      0.98817602 Se
atom      -1.66942154      9.58944998      2.66500000 Mo
atom      -0.00850747     10.55520591      4.33018333 Se
atom      -0.00850747     10.55520591      0.99981667 Se
atom      -3.32084407     12.45871576      2.66500000 Mo
atom      -1.66379677     13.41543319      4.34316098 Se
atom      -1.66379677     13.41543319      0.98683902 Se
atom       6.65054618      0.94486216      2.66500000 Mo
atom       8.30094997      1.91998029      4.33638713 Se
atom       8.30094997      1.91998029      0.99361287 Se
atom       4.95370486      3.83255922      2.66500000 Mo
atom       6.61891269      4.80417928      4.33397945 Se
atom       6.61891269      4.80417928      0.99602055 Se
atom       5.01189275      7.68566247      4.34181358 Se
atom       5.01189275      7.68566247      0.98818642 Se
atom       1.64594136      9.56177560      2.66500000 Mo
atom       3.31998792     10.51808963      4.33397399 Se
atom       3.31998792     10.51808963      0.99602601 Se
atom      -0.00646630     12.47513681      2.66500000 Mo
atom       1.66321844     13.41686083      4.33639753 Se
atom       1.66321844     13.41686083      0.99360247 Se
atom       9.96402088      0.96072156      2.66500000 Mo
atom      11.62000434      1.91679436      4.33954706 Se
atom      11.62000434      1.91679436      0.99045294 Se
atom       8.28810032      3.84048156      2.66500000 Mo
atom       9.95773095      4.78957625      4.33639633 Se
atom       9.95773095      4.78957625      0.99360367 Se
atom       6.62772521      6.73210897      2.66500000 Mo
atom       8.31531939      7.66818900      4.33017396 Se
atom       8.31531939      7.66818900      0.99982604 Se
atom       4.99404603      9.56179761      2.66500000 Mo
atom       6.64850760     10.55518261      4.33017489 Se
atom       6.64850760     10.55518261      0.99982511 Se
atom       3.31998924     12.44548934      2.66500000 Mo
atom       4.97677490     13.41685854      4.33639310 Se
atom       4.97677490     13.41685854      0.99360690 Se
atom      13.27597061      0.96071404      2.66500000 Mo
atom      14.93904659      1.91996079      4.33639765 Se
atom      14.93904659      1.91996079      0.99360235 Se
atom      11.62000838      3.82894751      2.66500000 Mo
atom      13.28227676      4.78959045      4.33639075 Se
atom      13.28227676      4.78959045      0.99360925 Se
atom       9.97701442      6.70641937      2.66500000 Mo
atom      11.62000514      7.67157238      4.34315854 Se
atom      11.62000514      7.67157238      0.98684146 Se
atom       8.30941583      9.58944571      2.66500000 Mo
atom       9.96346975     10.54439710      4.33826908 Se
atom       9.96346975     10.54439710      0.99173092 Se
atom       6.64644780     12.47512230      2.66500000 Mo
atom       8.30377847     13.41542485      4.34315609 Se
atom       8.30377847     13.41542485      0.98684391 Se
# 
# What follows is the current estimated Hessian matrix constructed by the BFGS algorithm.
# This is NOT the true Hessian matrix of the system.
# If you do not want this information here, switch it off using the "hessian_to_restart_geometry" keyword.
# 
trust_radius             0.0002867979
hessian_file
