#
lattice_vector      16.2956882     -0.00   -0.00
lattice_vector     -8.1402831      14.11790945      0.00
lattice_vector     -0.00      0.00    100.31494303
atom_frac 0.03322963 0.06661572 0.02647131 W
atom_frac 0.16673828 0.13336902 0.04318306 Se
atom_frac 0.16670588 0.13335344 0.00975387 Se
atom_frac 0.03328666 0.26657213 0.02648932 W
atom_frac 0.16655134 0.33323927 0.04324947 Se
atom_frac 0.16649639 0.33345350 0.00973453 Se
atom_frac 0.03344032 0.46656520 0.02651155 W
atom_frac 0.16666167 0.53332342 0.04327969 Se
atom_frac 0.16671860 0.53343700 0.00976392 Se
atom_frac 0.03343970 0.66687769 0.02651160 W
atom_frac 0.16666139 0.73333899 0.04327964 Se
atom_frac 0.16671755 0.73328200 0.00976398 Se
atom_frac 0.03328575 0.86671383 0.02648942 W
atom_frac 0.16655141 0.93331253 0.04324952 Se
atom_frac 0.16649454 0.93304249 0.00973447 Se
atom_frac 0.23352621 0.06636839 0.02646149 W
atom_frac 0.36639203 0.13328216 0.04328500 Se
atom_frac 0.36586200 0.13217776 0.00955377 Se
atom_frac 0.23352826 0.26715934 0.02646155 W
atom_frac 0.36639391 0.33310912 0.04328527 Se
atom_frac 0.36586315 0.33368443 0.00955377 Se
atom_frac 0.23312257 0.46656347 0.02651158 W
atom_frac 0.36687539 0.53312459 0.04320618 Se
atom_frac 0.36664826 0.53335249 0.00979832 Se
atom_frac 0.23333346 0.66666734 0.02652853 W
atom_frac 0.36667750 0.73333885 0.04327961 Se
atom_frac 0.36656352 0.73328135 0.00976397 Se
atom_frac 0.23312264 0.86655998 0.02651157 W
atom_frac 0.36687538 0.93375054 0.04320619 Se
atom_frac 0.36664619 0.93329404 0.00979809 Se
atom_frac 0.43370412 0.06740537 0.02646157 W
atom_frac 0.56689157 0.13328350 0.04328492 Se
atom_frac 0.56631770 0.13217855 0.00955367 Se
atom_frac 0.42920724 0.26460310 0.02632363 W
atom_frac 0.56666570 0.33333080 0.04213616 Se
atom_frac 0.56666456 0.33332647 0.06469535 Se
atom_frac 0.56666570 0.33333207 0.01009165 Se
atom_frac 0.43370431 0.46629783 0.02646183 W
atom_frac 0.56689082 0.53360636 0.04328521 Se
atom_frac 0.56631669 0.53413691 0.00955386 Se
atom_frac 0.43343840 0.66687682 0.02651160 W
atom_frac 0.56676139 0.73344976 0.04324958 Se
atom_frac 0.56654763 0.73350504 0.00973448 Se
atom_frac 0.43343620 0.86656056 0.02651147 W
atom_frac 0.56676183 0.93331285 0.04324944 Se
atom_frac 0.56654753 0.93304194 0.00973441 Se
atom_frac 0.63284019 0.06636471 0.02646138 W
atom_frac 0.76663046 0.13336978 0.04318295 Se
atom_frac 0.76664703 0.13335356 0.00975377 Se
atom_frac 0.63539434 0.26460611 0.02632360 W
atom_frac 0.76671489 0.33310814 0.04328528 Se
atom_frac 0.76782144 0.33368341 0.00955368 Se
atom_frac 0.63539661 0.47078930 0.02632375 W
atom_frac 0.76671561 0.53360712 0.04328518 Se
atom_frac 0.76782152 0.53413811 0.00955390 Se
atom_frac 0.63284028 0.66647347 0.02646163 W
atom_frac 0.76663110 0.73326178 0.04318320 Se
atom_frac 0.76664741 0.73329417 0.00975394 Se
atom_frac 0.63342896 0.86671524 0.02648932 W
atom_frac 0.76674352 0.93337218 0.04323321 Se
atom_frac 0.76665157 0.93332559 0.00972231 Se
atom_frac 0.83338513 0.06661639 0.02647123 W
atom_frac 0.96662923 0.13325762 0.04323322 Se
atom_frac 0.96667529 0.13334963 0.00972226 Se
atom_frac 0.83363366 0.26716029 0.02646150 W
atom_frac 0.96668725 0.33323910 0.04324941 Se
atom_frac 0.96695787 0.33345311 0.00973455 Se
atom_frac 0.83259102 0.46629427 0.02646180 W
atom_frac 0.96624872 0.53312466 0.04320620 Se
atom_frac 0.96670413 0.53335262 0.00979829 Se
atom_frac 0.83363260 0.66647472 0.02646161 W
atom_frac 0.96668739 0.73344913 0.04324960 Se
atom_frac 0.96695692 0.73350507 0.00973454 Se
atom_frac 0.83338507 0.86677026 0.02647137 W
atom_frac 0.96662870 0.93337262 0.04323325 Se
atom_frac 0.96667444 0.93332651 0.00972237 Se
