# 
# This is the geometry file that corresponds to the current relaxation step.
# If you do not want this file to be written, set the "write_restart_geometry" flag to .false.
#  aims_uuid : EFA4FB7C-F14A-4DFE-A2CD-9C96B8EDB36C                                
# 
  set_vacuum_level        52.979670
lattice_vector     16.44347560      0.00000000      0.00000000
lattice_vector     -8.22357185     14.23911350      0.00000000
lattice_vector      0.00000000      0.00000000     99.63748923
atom       0.03822028      1.02063346      2.72217016 W
atom       1.66977660      1.93736537      4.44887680 Se
atom       1.70355497      2.00423320      1.07674190 Se
atom      -1.59601100      3.87529373      2.71560311 W
atom       0.02934412      4.84872603      4.42305804 Se
atom       0.08843897      4.81652747      1.05260329 Se
atom      -3.25571421      6.71938846      2.68416100 W
atom      -1.62706793      7.68916352      4.36916476 Se
atom      -1.62308433      7.66880033      0.97535380 Se
atom      -4.88666225      9.57265796      2.68425114 W
atom      -3.23877806     10.51284753      4.37238638 Se
atom      -3.25937211     10.53750399      0.99190817 Se
atom      -6.53002079     12.42340984      2.69906587 W
atom      -4.88869148     13.34161370      4.40951147 Se
atom      -4.88791513     13.39699153      1.02665309 Se
atom       3.33265543      1.02337870      2.75691701 W
atom       4.99627022      1.93299380      4.44938279 Se
atom       4.95798602      2.01559378      1.08263148 Se
atom       1.69744839      3.86772491      2.80365468 W
atom       3.32954865      4.65969169      4.62841138 Se
atom       3.31696984      5.07889215      1.33922909 Se
atom       0.00440083      6.73799230      2.68852780 W
atom       1.78698569      7.55585094      4.17045538 Se
atom       1.59507795      7.71246732      0.89075598 Se
atom      -1.61190070      9.57259725      2.66042131 W
atom       0.06886233     10.48841511      4.32687246 Se
atom      -0.01425728     10.56187825      0.94811111 Se
atom      -3.24614566     12.42206513      2.69958255 W
atom      -1.58977775     13.34606991      4.39145814 Se
atom      -1.61956244     13.39074397      1.00551805 Se
atom       6.62670422      1.02028227      2.72107479 W
atom       8.27744369      1.96984157      4.39804109 Se
atom       8.25094010      1.98464032      1.02126185 Se
atom       4.94765716      3.87634682      2.82176449 W
atom       6.62938903      4.86232826      4.42100905 Se
atom       6.56133734      4.82304502      1.06026047 Se
atom       4.88624703      7.58585791      4.16472496 Se
atom       5.09781932      7.72661490      0.87357091 Se
atom       1.64515036      9.54380894      2.55646896 W
atom       3.33554287     10.42873158      4.25250867 Se
atom       3.33361287     10.51358149      0.91049422 Se
atom       0.03536910     12.42389985      2.67417465 W
atom       1.70390698     13.33648746      4.35576787 Se
atom       1.67526477     13.37663798      0.98140320 Se
atom       9.90819363      1.02072224      2.69115718 W
atom      11.55279359      1.96686442      4.37944930 Se
atom      11.55272170      1.97427573      1.00481189 Se
atom       8.25327522      3.87881047      2.71654971 W
atom       9.91466875      4.82938290      4.38549809 Se
atom       9.89567047      4.81274237      1.00946753 Se
atom       6.66126709      6.75456455      2.67732466 W
atom       8.29368013      7.69416196      4.36567480 Se
atom       8.30125651      7.67408905      0.97241002 Se
atom       5.03055458      9.55651375      2.55479984 W
atom       6.60483792     10.49628169      4.32633250 Se
atom       6.68774062     10.56976672      0.94311006 Se
atom       3.33082459     12.39459875      2.63819509 W
atom       4.95906291     13.33554389      4.35492522 Se
atom       4.98618173     13.37660450      0.98099984 Se
atom      13.19779762      1.01962466      2.69111134 W
atom      14.82732278      1.96698683      4.39877598 Se
atom      14.85452596      1.98110984      1.02123388 Se
atom      11.55166844      3.87174534      2.69402353 W
atom      13.18877343      4.82797979      4.38564487 Se
atom      13.20648833      4.81119304      1.00836429 Se
atom       9.92477393      6.72188576      2.68430166 W
atom      11.55643658      7.67618701      4.37728350 Se
atom      11.55729699      7.67325837      0.99150971 Se
atom       8.28302467      9.57774973      2.65753231 W
atom       9.90854722     10.51435707      4.37162974 Se
atom       9.93171180     10.54023616      0.99038704 Se
atom       6.63139630     12.42727675      2.67254296 W
atom       8.25559124     13.34732085      4.39146697 Se
atom       8.28577121     13.39282013      1.00502310 Se
# 
# What follows is the current estimated Hessian matrix constructed by the BFGS algorithm.
# This is NOT the true Hessian matrix of the system.
# If you do not want this information here, switch it off using the "hessian_to_restart_geometry" keyword.
# 
trust_radius             0.0017607606
hessian_file
