#=======================================================
# FHI-aims file: geometry_supercell.in
# Created using the Atomic Simulation Environment (ASE)
# Wed Jun  2 16:13:52 2021
#=======================================================
lattice_vector 15.9000000000000004 0.0000000000000000 0.0000000000000000 
lattice_vector -7.9500000000000002 13.7698039201725742 0.0000000000000000 
lattice_vector 0.0000000000000000 0.0000000000000000 100.0000 
atom 0.0000000000000000 0.9179869280115049 2.6000000000000001 W
atom 1.5900000000000003 1.8359738560230099 4.2000000000000002 S
atom 1.5900000000000003 1.8359738560230099 1.0000000000000000 S
atom -1.5900000000000001 3.6719477120460198 2.6000000000000001 W
atom -0.0000000000000000 4.5899346400575247 4.2000000000000002 S
atom -0.0000000000000000 4.5899346400575247 1.0000000000000000 S
atom -3.1800000000000002 6.4259084960805337 2.6000000000000001 W
atom -1.5899999999999996 7.3438954240920395 4.2000000000000002 S
atom -1.5899999999999996 7.3438954240920395 1.0000000000000000 S
atom -4.7700000000000005 9.1798692801150512 2.6000000000000001 W
atom -3.1800000000000002 10.0978562081265544 4.2000000000000002 S
atom -3.1800000000000002 10.0978562081265544 1.0000000000000000 S
atom -6.3600000000000003 11.9338300641495625 2.6000000000000001 W
atom -4.7700000000000005 12.8518169921610674 4.2000000000000002 S
atom -4.7700000000000005 12.8518169921610674 1.0000000000000000 S
atom 3.1800000000000002 0.9179869280115049 2.6000000000000001 W
atom 4.7700000000000014 1.8359738560230099 4.2000000000000002 S
atom 4.7700000000000014 1.8359738560230099 1.0000000000000000 S
atom 1.5899999999999999 3.6719477120460198 2.6000000000000001 W
atom 3.1800000000000010 4.5899346400575247 4.2000000000000002 S
atom 3.1800000000000010 4.5899346400575247 1.0000000000000000 S
atom -0.0000000000000002 6.4259084960805337 2.6000000000000001 W
atom 1.5900000000000010 7.3438954240920395 4.2000000000000002 S
atom 1.5900000000000010 7.3438954240920395 1.0000000000000000 S
atom -1.5900000000000007 9.1798692801150512 2.6000000000000001 W
atom 0.0000000000000004 10.0978562081265544 4.2000000000000002 S
atom 0.0000000000000004 10.0978562081265544 1.0000000000000000 S
atom -3.1800000000000002 11.9338300641495625 2.6000000000000001 W
atom -1.5899999999999994 12.8518169921610674 4.2000000000000002 S
atom -1.5899999999999994 12.8518169921610674 1.0000000000000000 S
atom 6.3600000000000003 0.9179869280115049 2.6000000000000001 W
atom 7.9500000000000002 1.8359738560230099 4.2000000000000002 S
atom 7.9500000000000002 1.8359738560230099 1.0000000000000000 S
atom 4.7700000000000005 3.6719477120460198 2.6000000000000001 W
atom 6.3599999999999994 4.5899346400575247 4.2000000000000002 S
atom 6.3599999999999994 4.5899346400575247 5.9000000000000002 S
atom 6.3599999999999994 4.5899346400575247 1.0000000000000000 S
atom 3.1800000000000002 6.4259084960805337 2.6000000000000001 W
atom 4.7700000000000014 7.3438954240920395 4.2000000000000002 S
atom 4.7700000000000014 7.3438954240920395 1.0000000000000000 S
atom 1.5899999999999999 9.1798692801150512 2.6000000000000001 W
atom 3.1800000000000010 10.0978562081265544 4.2000000000000002 S
atom 3.1800000000000010 10.0978562081265544 1.0000000000000000 S
atom 0.0000000000000002 11.9338300641495625 2.6000000000000001 W
atom 1.5899999999999985 12.8518169921610674 4.2000000000000002 S
atom 1.5899999999999985 12.8518169921610674 1.0000000000000000 S
atom 9.5400000000000009 0.9179869280115049 2.6000000000000001 W
atom 11.1300000000000008 1.8359738560230099 4.2000000000000002 S
atom 11.1300000000000008 1.8359738560230099 1.0000000000000000 S
atom 7.9500000000000002 3.6719477120460198 2.6000000000000001 W
atom 9.5400000000000009 4.5899346400575247 4.2000000000000002 S
atom 9.5400000000000009 4.5899346400575247 1.0000000000000000 S
atom 6.3600000000000003 6.4259084960805337 2.6000000000000001 W
atom 7.9500000000000011 7.3438954240920395 4.2000000000000002 S
atom 7.9500000000000011 7.3438954240920395 1.0000000000000000 S
atom 4.7699999999999996 9.1798692801150512 2.6000000000000001 W
atom 6.3600000000000003 10.0978562081265544 4.2000000000000002 S
atom 6.3600000000000003 10.0978562081265544 1.0000000000000000 S
atom 3.1800000000000006 11.9338300641495625 2.6000000000000001 W
atom 4.7700000000000005 12.8518169921610674 4.2000000000000002 S
atom 4.7700000000000005 12.8518169921610674 1.0000000000000000 S
atom 12.7200000000000006 0.9179869280115049 2.6000000000000001 W
atom 14.3100000000000005 1.8359738560230099 4.2000000000000002 S
atom 14.3100000000000005 1.8359738560230099 1.0000000000000000 S
atom 11.1300000000000008 3.6719477120460198 2.6000000000000001 W
atom 12.7200000000000006 4.5899346400575247 4.2000000000000002 S
atom 12.7200000000000006 4.5899346400575247 1.0000000000000000 S
atom 9.5400000000000009 6.4259084960805337 2.6000000000000001 W
atom 11.1300000000000008 7.3438954240920395 4.2000000000000002 S
atom 11.1300000000000008 7.3438954240920395 1.0000000000000000 S
atom 7.9499999999999993 9.1798692801150512 2.6000000000000001 W
atom 9.5400000000000009 10.0978562081265544 4.2000000000000002 S
atom 9.5400000000000009 10.0978562081265544 1.0000000000000000 S
atom 6.3600000000000003 11.9338300641495625 2.6000000000000001 W
atom 7.9500000000000002 12.8518169921610674 4.2000000000000002 S
atom 7.9500000000000002 12.8518169921610674 1.0000000000000000 S
