# 
# This is the geometry file that corresponds to the current relaxation step.
# If you do not want this file to be written, set the "write_restart_geometry" flag to .false.
#  aims_uuid : E1C639B8-EC6B-451A-A609-DA02430606F6                                
# 
  set_vacuum_level        52.600000
lattice_vector     15.81224903     -0.00459664      0.00000489
lattice_vector     -7.91000290     13.69141390      0.00000843
lattice_vector     -0.00000003      0.00000008     99.95896981
atom      -0.00047648      0.91280614      2.59900556 W
atom       1.58071841      1.82486464      4.18018352 S
atom       1.58080691      1.82489275      1.01789346 S
atom      -1.58235349      3.65100439      2.59907850 W
atom      -0.00124481      4.56313030      4.18030107 S
atom      -0.00127885      4.56328828      1.01790375 S
atom      -3.16436259      6.38928354      2.59924296 W
atom      -1.58322364      7.30136490      4.18050125 S
atom      -1.58329420      7.30140242      1.01794665 S
atom      -4.74639152      9.12754493      2.59913583 W
atom      -3.16531560     10.03964580      4.18036845 S
atom      -3.16533716     10.03948247      1.01785175 S
atom      -6.32851919     11.86592103      2.59895296 W
atom      -4.74747183     12.77794674      4.18026450 S
atom      -4.74741082     12.77805705      1.01775107 S
atom       3.16204758      0.91182023      2.59911219 W
atom       4.74336583      1.82384626      4.18023847 S
atom       4.74327512      1.82362831      1.01789088 S
atom       1.58010096      3.65020518      2.59901748 W
atom       3.16133448      4.56220853      4.18013134 S
atom       3.16126191      4.56208298      1.01767961 S
atom      -0.00190043      6.38852342      2.59908370 W
atom       1.57942920      7.30029786      4.18025533 S
atom       1.57922491      7.30032378      1.01771599 S
atom      -1.58392744      9.12656001      2.59914743 W
atom      -0.00258065     10.03841875      4.18015181 S
atom      -0.00278002     10.03818789      1.01774957 S
atom      -3.16619322     11.86485007      2.59898404 W
atom      -1.58489668     12.77656563      4.18017025 S
atom      -1.58500356     12.77665895      1.01779538 S
atom       6.32455120      0.91062016      2.59899525 W
atom       7.90582796      1.82273985      4.18007847 S
atom       7.90560650      1.82262743      1.01757228 S
atom       4.74263509      3.64915223      2.59883070 W
atom       6.32387661      4.56120312      4.17979677 S
atom       6.32372754      4.56105613      1.01746987 S
atom       3.16064277      6.38744500      2.59887873 W
atom       4.74188590      7.29952611      4.17986919 S
atom       4.74156881      7.29960202      1.01754487 S
atom       1.57870674      9.12556503      2.59890169 W
atom       3.15978088     10.03785390      4.18009727 S
atom       3.15968122     10.03777747      1.01760173 S
atom      -0.00359570     11.86362516      2.59878660 W
atom       1.57750353     12.77586707      4.17994984 S
atom       1.57739122     12.77575625      1.01755855 S
atom       9.48689719      0.90978645      2.59875406 W
atom      11.06807304      1.82191587      4.17997559 S
atom      11.06822344      1.82198272      1.01762925 S
atom       7.90508620      3.64791016      2.59870860 W
atom       9.48607090      4.56013919      4.18004974 S
atom       9.48614346      4.56023339      1.01773711 S
atom       6.32308007      6.38655580      2.59854240 W
atom       7.90401380      7.29854213      4.17999694 S
atom       7.90429434      7.29861312      1.01754227 S
atom       4.74105745      9.12493127      2.59880787 W
atom       6.32222162     10.03682437      4.18012322 S
atom       6.32223989     10.03699107      1.01765910 S
atom       3.15888656     11.86301795      2.59879227 W
atom       4.73991880     12.77503879      4.18011959 S
atom       4.74009519     12.77508392      1.01769365 S
atom      12.64945603      0.90897407      2.59889767 W
atom      14.23042094      1.82104777      4.18018346 S
atom      14.23059279      1.82115445      1.01779721 S
atom      11.06753094      3.64726946      2.59887827 W
atom      12.64849725      4.55925837      4.18029238 S
atom      12.64872572      4.55953607      1.01785052 S
atom       9.48538871      6.38557715      2.59897279 W
atom      11.06643986      7.29761380      4.18034716 S
atom      11.06665577      7.29767518      1.01796732 S
atom       7.90345419      9.12389804      2.59887702 W
atom       9.48448552     10.03597443      4.18022969 S
atom       9.48466810     10.03593332      1.01778851 S
atom       6.32137326     11.86220050      2.59897571 W
atom       7.90244299     12.77426203      4.18016431 S
atom       7.90248166     12.77432695      1.01771542 S
# 
# What follows is the current estimated Hessian matrix constructed by the BFGS algorithm.
# This is NOT the true Hessian matrix of the system.
# If you do not want this information here, switch it off using the "hessian_to_restart_geometry" keyword.
# 
trust_radius             0.0004755811
hessian_file
