# 
# This is the geometry file that corresponds to the current relaxation step.
# If you do not want this file to be written, set the "write_restart_geometry" flag to .false.
#  aims_uuid : 010AEE4C-3847-417C-A5DD-B0915EA1319F                                
# 
  set_vacuum_level        52.600000
lattice_vector     15.81224903     -0.00459664      0.00000489
lattice_vector     -7.91000290     13.69141390      0.00000843
lattice_vector     -0.00000003      0.00000008     99.95896981
atom      -0.00041847      0.91277752      2.59900996 W
atom       1.58075118      1.82484544      4.18026609 S
atom       1.58077137      1.82481875      1.01783323 S
atom      -1.58239450      3.65103398      2.59904691 W
atom      -0.00122223      4.56308702      4.18027202 S
atom      -0.00124751      4.56313393      1.01786118 S
atom      -3.16438737      6.38928337      2.59918833 W
atom      -1.58321185      7.30132098      4.18041266 S
atom      -1.58327434      7.30129962      1.01793022 S
atom      -4.74641239      9.12754130      2.59908245 W
atom      -3.16528908     10.03959560      4.18031094 S
atom      -3.16527463     10.03952938      1.01785689 S
atom      -6.32846640     11.86588575      2.59900025 W
atom      -4.74733543     12.77785796      4.18024199 S
atom      -4.74734455     12.77792701      1.01780463 S
atom       3.16205279      0.91181923      2.59904039 W
atom       4.74330933      1.82382794      4.18015942 S
atom       4.74322167      1.82369860      1.01775956 S
atom       1.58009311      3.65015502      2.59902071 W
atom       3.16136713      4.56212477      4.18012009 S
atom       3.16122321      4.56206114      1.01769550 S
atom      -0.00191430      6.38840131      2.59908897 W
atom       1.57941141      7.30037314      4.18020834 S
atom       1.57922224      7.30028148      1.01773302 S
atom      -1.58396507      9.12658640      2.59910957 W
atom      -0.00266067     10.03853026      4.18019555 S
atom      -0.00283616     10.03840622      1.01776634 S
atom      -3.16604465     11.86488730      2.59902401 W
atom      -1.58481094     12.77680229      4.18015946 S
atom      -1.58493423     12.77676478      1.01773199 S
atom       6.32452924      0.91073464      2.59891609 W
atom       7.90573740      1.82276900      4.18003890 S
atom       7.90564135      1.82275556      1.01761683 S
atom       4.74257054      3.64912504      2.59884595 W
atom       6.32377576      4.56119213      4.17989491 S
atom       6.32367948      4.56107191      1.01754278 S
atom       3.16060010      6.38740649      2.59887506 W
atom       4.74184336      7.29947788      4.17996025 S
atom       4.74167795      7.29950870      1.01753814 S
atom       1.57858677      9.12562199      2.59892328 W
atom       3.15975730     10.03773896      4.18007410 S
atom       3.15965353     10.03772685      1.01760582 S
atom      -0.00355959     11.86380911      2.59889078 W
atom       1.57758623     12.77588072      4.18003704 S
atom       1.57754865     12.77584397      1.01759674 S
atom       9.48693694      0.90980880      2.59879027 W
atom      11.06805716      1.82190164      4.18003239 S
atom      11.06815233      1.82192957      1.01766546 S
atom       7.90501476      3.64812169      2.59878462 W
atom       9.48610441      4.56014408      4.18008291 S
atom       9.48617827      4.56026386      1.01762858 S
atom       6.32302443      6.38650680      2.59867783 W
atom       7.90406794      7.29852103      4.18006506 S
atom       7.90426070      7.29859377      1.01758854 S
atom       4.74102899      9.12483545      2.59879349 W
atom       6.32213793     10.03682851      4.18008984 S
atom       6.32220890     10.03692060      1.01761602 S
atom       3.15891705     11.86303001      2.59882478 W
atom       4.74000189     12.77508443      4.18010345 S
atom       4.74010265     12.77510981      1.01766665 S
atom      12.64940646      0.90901358      2.59889744 W
atom      14.23048173      1.82105466      4.18022487 S
atom      14.23059735      1.82115287      1.01778326 S
atom      11.06743790      3.64729825      2.59889758 W
atom      12.64850628      4.55926736      4.18028945 S
atom      12.64864022      4.55946184      1.01782954 S
atom       9.48541268      6.38555903      2.59893767 W
atom      11.06645043      7.29759409      4.18031624 S
atom      11.06664746      7.29764910      1.01789081 S
atom       7.90344483      9.12389639      2.59887699 W
atom       9.48445703     10.03594100      4.18021039 S
atom       9.48464732     10.03596453      1.01776895 S
atom       6.32138101     11.86219379      2.59892030 W
atom       7.90246378     12.77422614      4.18020969 S
atom       7.90253352     12.77430486      1.01775524 S
# 
# What follows is the current estimated Hessian matrix constructed by the BFGS algorithm.
# This is NOT the true Hessian matrix of the system.
# If you do not want this information here, switch it off using the "hessian_to_restart_geometry" keyword.
# 
trust_radius             0.0001186077
hessian_file
