&CONTROL
calculation = "scf"
pseudo_dir = "" ! insert pseudopotential directory
prefix = "unfold"
disk_io = "low"
/

&SYSTEM
ibrav = 0
nat = 75
ntyp = 2
ecutwfc = 30
!noncolin = .true.
!lspinorb = .true.
/

&ELECTRONS
/

ATOMIC_SPECIES
Se 1. ! add Se pseudo name
Mo 1. ! add Mo pseudo name

CELL_PARAMETERS angstrom
16.60000000	0.00000000	0.00000000
-8.30000000	14.37602170	0.00000000
0.00000000	0.00000000	100.00000000

ATOMIC_POSITIONS angstrom
Mo	0.00000000	0.95840145	2.66500000
Se	1.66000000	1.91680289	4.33065295
Se	1.66000000	1.91680289	0.99934705
Mo	-1.66000000	3.83360579	2.66500000
Se	-0.00000000	4.79200723	4.33065295
Se	-0.00000000	4.79200723	0.99934705
Mo	-3.32000000	6.70881013	2.66500000
Se	-1.66000000	7.66721157	4.33065295
Se	-1.66000000	7.66721157	0.99934705
Mo	-4.98000000	9.58401447	2.66500000
Se	-3.32000000	10.54241592	4.33065295
Se	-3.32000000	10.54241592	0.99934705
Mo	-6.64000000	12.45921881	2.66500000
Se	-4.98000000	13.41762026	4.33065295
Se	-4.98000000	13.41762026	0.99934705
Mo	3.32000000	0.95840145	2.66500000
Se	4.98000000	1.91680289	4.33065295
Se	4.98000000	1.91680289	0.99934705
Mo	1.66000000	3.83360579	2.66500000
Se	3.32000000	4.79200723	4.33065295
Se	3.32000000	4.79200723	0.99934705
Mo	0.00000000	6.70881013	2.66500000
Se	1.66000000	7.66721157	4.33065295
Se	1.66000000	7.66721157	0.99934705
Mo	-1.66000000	9.58401447	2.66500000
Se	-0.00000000	10.54241592	4.33065295
Se	-0.00000000	10.54241592	0.99934705
Mo	-3.32000000	12.45921881	2.66500000
Se	-1.66000000	13.41762026	4.33065295
Se	-1.66000000	13.41762026	0.99934705
Mo	6.64000000	0.95840145	2.66500000
Se	8.30000000	1.91680289	4.33065295
Se	8.30000000	1.91680289	0.99934705
Mo	4.98000000	3.83360579	2.66500000
Se	6.64000000	4.79200723	4.33065295
Se	6.64000000	4.79200723	0.99934705
Mo	3.32000000	6.70881013	2.66500000
Se	4.98000000	7.66721157	4.33065295
Se	4.98000000	7.66721157	0.99934705
Mo	1.66000000	9.58401447	2.66500000
Se	3.32000000	10.54241592	4.33065295
Se	3.32000000	10.54241592	0.99934705
Mo	-0.00000000	12.45921881	2.66500000
Se	1.66000000	13.41762026	4.33065295
Se	1.66000000	13.41762026	0.99934705
Mo	9.96000000	0.95840145	2.66500000
Se	11.62000000	1.91680289	4.33065295
Se	11.62000000	1.91680289	0.99934705
Mo	8.30000000	3.83360579	2.66500000
Se	9.96000000	4.79200723	4.33065295
Se	9.96000000	4.79200723	0.99934705
Mo	6.64000000	6.70881013	2.66500000
Se	8.30000000	7.66721157	4.33065295
Se	8.30000000	7.66721157	0.99934705
Mo	4.98000000	9.58401447	2.66500000
Se	6.64000000	10.54241592	4.33065295
Se	6.64000000	10.54241592	0.99934705
Mo	3.32000000	12.45921881	2.66500000
Se	4.98000000	13.41762026	4.33065295
Se	4.98000000	13.41762026	0.99934705
Mo	13.28000000	0.95840145	2.66500000
Se	14.94000000	1.91680289	4.33065295
Se	14.94000000	1.91680289	0.99934705
Mo	11.62000000	3.83360579	2.66500000
Se	13.28000000	4.79200723	4.33065295
Se	13.28000000	4.79200723	0.99934705
Mo	9.96000000	6.70881013	2.66500000
Se	11.62000000	7.66721157	4.33065295
Se	11.62000000	7.66721157	0.99934705
Mo	8.30000000	9.58401447	2.66500000
Se	9.96000000	10.54241592	4.33065295
Se	9.96000000	10.54241592	0.99934705
Mo	6.64000000	12.45921881	2.66500000
Se	8.30000000	13.41762026	4.33065295
Se	8.30000000	13.41762026	0.99934705

K_POINTS automatic
4 4 1 0 0 0
