#
lattice_vector      16.238659     -0.000     -0.00
lattice_vector      -8.11989635    14.06215255     -0.00
lattice_vector      0.0000      0.0000     99.93951163
atom_frac 0.03251667 0.06634042 0.02686014 Mo
atom_frac 0.16815071 0.13606529 0.04319860 Se
atom_frac 0.16521967 0.13190094 0.01001292 Se
atom_frac 0.03384149 0.26657446 0.02694623 Mo
atom_frac 0.17253360 0.33959731 0.04310574 Se
atom_frac 0.16440311 0.33208257 0.00974015 Se
atom_frac 0.03365632 0.46765104 0.02686331 Mo
atom_frac 0.17010883 0.53495625 0.04324623 Se
atom_frac 0.16370265 0.53216076 0.00950840 Se
atom_frac 0.03302040 0.66604048 0.02663205 Mo
atom_frac 0.16769131 0.73243899 0.04308131 Se
atom_frac 0.16659508 0.73372071 0.00998751 Se
atom_frac 0.03339607 0.86708979 0.02667411 Mo
atom_frac 0.16678533 0.93356977 0.04334863 Se
atom_frac 0.16686289 0.93372442 0.01002649 Se
atom_frac 0.23344908 0.06689670 0.02669248 Mo
atom_frac 0.36791602 0.13606517 0.04319864 Se
atom_frac 0.36668322 0.13190096 0.01001301 Se
atom_frac 0.23481894 0.26842015 0.02620103 Mo
atom_frac 0.37383018 0.34765618 0.04124109 Se
atom_frac 0.36394215 0.32788012 0.00903722 Se
atom_frac 0.22963855 0.46785700 0.02583199 Mo
atom_frac 0.37203288 0.52539422 0.01303586 Se
atom_frac 0.23476885 0.66567763 0.02631548 Mo
atom_frac 0.36696322 0.72938730 0.04300115 Se
atom_frac 0.36704395 0.73659379 0.00921084 Se
atom_frac 0.23369421 0.86708990 0.02667417 Mo
atom_frac 0.36627900 0.93265211 0.04345761 Se
atom_frac 0.36716354 0.93410863 0.01007543 Se
atom_frac 0.43382387 0.06633999 0.02686025 Mo
atom_frac 0.56605230 0.13361934 0.04370937 Se
atom_frac 0.56750131 0.13310074 0.01031353 Se
atom_frac 0.43360407 0.26842013 0.02620110 Mo
atom_frac 0.56706331 0.33959454 0.04310606 Se
atom_frac 0.56767940 0.33208042 0.00974016 Se
atom_frac 0.55336018 0.52539173 0.01303608 Se
atom_frac 0.43170097 0.66955469 0.02523888 Mo
atom_frac 0.55974953 0.71950245 0.04260835 Se
atom_frac 0.56806446 0.73613224 0.00916650 Se
atom_frac 0.43250294 0.86593634 0.02673388 Mo
atom_frac 0.56547895 0.93070147 0.04352577 Se
atom_frac 0.56768780 0.93406869 0.01033797 Se
atom_frac 0.63312701 0.06641717 0.02713733 Mo
atom_frac 0.76648056 0.13296152 0.04383470 Se
atom_frac 0.76660889 0.13321881 0.01054168 Se
atom_frac 0.63273173 0.26657351 0.02694636 Mo
atom_frac 0.76635312 0.33428291 0.04361091 Se
atom_frac 0.76668548 0.33249530 0.01042555 Se
atom_frac 0.63821439 0.46785086 0.02583222 Mo
atom_frac 0.76484632 0.53495380 0.04324620 Se
atom_frac 0.76845616 0.53215811 0.00950856 Se
atom_frac 0.63784995 0.66955508 0.02523879 Mo
atom_frac 0.76242324 0.72938785 0.04300097 Se
atom_frac 0.76954883 0.73659342 0.00921079 Se
atom_frac 0.63227342 0.86454956 0.02679694 Mo
atom_frac 0.76522173 0.93070156 0.04352568 Se
atom_frac 0.76637952 0.93406867 0.01033793 Se
atom_frac 0.83328915 0.06641726 0.02713726 Mo
atom_frac 0.96756734 0.13361989 0.04370926 Se
atom_frac 0.96559947 0.13310111 0.01031344 Se
atom_frac 0.83333328 0.26666768 0.02715594 Mo
atom_frac 0.96793001 0.33428346 0.04361084 Se
atom_frac 0.96580957 0.33249596 0.01042550 Se
atom_frac 0.83399442 0.46765011 0.02686336 Mo
atom_frac 0.96714383 0.53428717 0.04352828 Se
atom_frac 0.96632903 0.53265817 0.01006498 Se
atom_frac 0.83090840 0.66567678 0.02631548 Mo
atom_frac 0.96474834 0.73243891 0.04308129 Se
atom_frac 0.96712592 0.73372017 0.00998749 Se
atom_frac 0.83343379 0.86593746 0.02673376 Mo
atom_frac 0.96637385 0.93265252 0.04345753 Se
atom_frac 0.96694598 0.93410882 0.01007530 Se
