# 
# This is the geometry file that corresponds to the current relaxation step.
# If you do not want this file to be written, set the "write_restart_geometry" flag to .false.
#  aims_uuid : C885C44F-3E07-4AA8-AB8D-F9BD0D3AC303                                
# 
  set_vacuum_level        52.611753
lattice_vector     16.23865900      0.00000000      0.00000000
lattice_vector     -8.11989635     14.06215255      0.00000000
lattice_vector      0.00000000      0.00000000     99.93951163
atom_frac       0.03279372      0.06671044      0.02692954 Mo
atom_frac       0.16918307      0.13745446      0.04308922 Se
atom_frac       0.16538650      0.13240452      0.01015815 Se
atom_frac       0.03416649      0.26694519      0.02701313 Mo
atom_frac       0.17393895      0.34061511      0.04304904 Se
atom_frac       0.16444218      0.33233194      0.00983846 Se
atom_frac       0.03382872      0.46738572      0.02689347 Mo
atom_frac       0.17108530      0.53518976      0.04309532 Se
atom_frac       0.16374604      0.53180931      0.00963279 Se
atom_frac       0.03309239      0.66619033      0.02663898 Mo
atom_frac       0.16770715      0.73249594      0.04299052 Se
atom_frac       0.16657915      0.73395555      0.01008205 Se
atom_frac       0.03348834      0.86721211      0.02669679 Mo
atom_frac       0.16697820      0.93395721      0.04325818 Se
atom_frac       0.16703800      0.93407831      0.01016349 Se
atom_frac       0.23372139      0.06744043      0.02671245 Mo
atom_frac       0.36827405      0.13744708      0.04308948 Se
atom_frac       0.36702013      0.13239876      0.01015776 Se
atom_frac       0.23570125      0.26990321      0.02615457 Mo
atom_frac       0.37682541      0.35362635      0.04076214 Se
atom_frac       0.36478991      0.32956212      0.00903491 Se
atom_frac       0.23144737      0.46851988      0.02576269 Mo
atom_frac       0.37136118      0.52519717      0.01232734 Se
atom_frac       0.23452202      0.66572780      0.02629694 Mo
atom_frac       0.36682218      0.72790130      0.04279361 Se
atom_frac       0.36725840      0.73626094      0.00933507 Se
atom_frac       0.23372046      0.86721329      0.02669666 Mo
atom_frac       0.36631019      0.93246916      0.04337891 Se
atom_frac       0.36746563      0.93426783      0.01025194 Se
atom_frac       0.43391620      0.06670745      0.02692937 Mo
atom_frac       0.56593199      0.13377423      0.04368396 Se
atom_frac       0.56762772      0.13303277      0.01053737 Se
atom_frac       0.43421066      0.26989253      0.02615460 Mo
atom_frac       0.56667859      0.34059654      0.04304983 Se
atom_frac       0.56789229      0.33232041      0.00983851 Se
atom_frac       0.55382421      0.52518125      0.01232715 Se
atom_frac       0.43119744      0.66717937      0.02510789 Mo
atom_frac       0.55769373      0.71540063      0.04256913 Se
atom_frac       0.56748177      0.73496844      0.00916205 Se
atom_frac       0.43267034      0.86553783      0.02676641 Mo
atom_frac       0.56516309      0.92956768      0.04348976 Se
atom_frac       0.56785984      0.93372124      0.01054702 Se
atom_frac       0.63311760      0.06611117      0.02725796 Mo
atom_frac       0.76636960      0.13273610      0.04386901 Se
atom_frac       0.76649898      0.13299384      0.01077036 Se
atom_frac       0.63278134      0.26693922      0.02701318 Mo
atom_frac       0.76619273      0.33442423      0.04359892 Se
atom_frac       0.76656431      0.33211436      0.01061204 Se
atom_frac       0.63705545      0.46849952      0.02576336 Mo
atom_frac       0.76409648      0.53517997      0.04309540 Se
atom_frac       0.76805375      0.53180135      0.00963356 Se
atom_frac       0.63596112      0.66717154      0.02510799 Mo
atom_frac       0.76106660      0.72789455      0.04279340 Se
atom_frac       0.76899197      0.73625419      0.00933567 Se
atom_frac       0.63147292      0.86295123      0.02683047 Mo
atom_frac       0.76440291      0.92956761      0.04348985 Se
atom_frac       0.76586142      0.93372133      0.01054717 Se
atom_frac       0.83299523      0.06611265      0.02725807 Mo
atom_frac       0.96784930      0.13377942      0.04368402 Se
atom_frac       0.96541130      0.13303642      0.01053754 Se
atom_frac       0.83324739      0.26649161      0.02727246 Mo
atom_frac       0.96823893      0.33442741      0.04359878 Se
atom_frac       0.96555661      0.33211639      0.01061210 Se
atom_frac       0.83355321      0.46738177      0.02689362 Mo
atom_frac       0.96715379      0.53430849      0.04342808 Se
atom_frac       0.96620406      0.53241099      0.01023233 Se
atom_frac       0.83119635      0.66572204      0.02629733 Mo
atom_frac       0.96478414      0.73249392      0.04299067 Se
atom_frac       0.96736925      0.73395277      0.01008227 Se
atom_frac       0.83286189      0.86553603      0.02676661 Mo
atom_frac       0.96615843      0.93246970      0.04337898 Se
atom_frac       0.96680102      0.93426805      0.01025219 Se
# 
# What follows is the current estimated Hessian matrix constructed by the BFGS algorithm.
# This is NOT the true Hessian matrix of the system.
# If you do not want this information here, switch it off using the "hessian_to_restart_geometry" keyword.
# 
trust_radius             0.0002749449
hessian_file
