#
# Model[1]: Jmol 14.6.4_2016.11.05  2016-11-10 03:30
# Generated by Open Babel 3.0.0
#
lattice_vector     15.76960250      0.00000000      0.00000000
lattice_vector     -7.88732950     13.65525595      0.00000000
lattice_vector      0.00000000      0.00000000     99.30554027
atom                   0.00880        0.93420        2.60310  Mo
atom                   1.59400        1.84680        4.16100  S
atom                   1.58440        1.82540        1.03370  S
atom                  -1.54930        3.68100        2.59900  Mo
atom                   0.04370        4.59220        4.16280  S
atom                   0.03600        4.60490        1.03470  S
atom                  -3.15020        6.40310        2.59520  Mo
atom                  -1.59030        7.32180        4.16440  S
atom                  -1.56790        7.31970        1.03700  S
atom                  -4.71610        9.13860        2.59930  Mo
atom                  -3.14440       10.05020        4.17200  S
atom                  -3.14500       10.04910        1.02650  S
atom                  -6.29140       11.86600        2.59920  Mo
atom                  -4.71720       12.77150        4.17180  S
atom                  -4.71610       12.77120        1.02640  S
atom                   3.17040        0.92770        2.59890  Mo
atom                   4.75600        1.82580        4.16410  S
atom                   4.74680        1.84610        1.03660  S
atom                   1.62630        3.66810        2.57570  Mo
atom                   3.38224        5.31949        4.17799  S
atom                   3.32901        5.23078        1.03752  S
atom                   0.02620        6.43740        2.62150  Mo
atom                   1.35956        7.34217        4.17799  S
atom                   1.39505        7.34217        1.03752  S
atom                  -1.57560        9.14400        2.59930  Mo
atom                   0.00790       10.04980        4.16160  S
atom                  -0.00500       10.06800        1.03410  S
atom                  -3.14170       11.86610        2.59920  Mo
atom                  -1.56600       12.77760        4.17190  S
atom                  -1.56430       12.77480        1.02640  S
atom                   6.33190        0.93420        2.59510  Mo
atom                   7.89950        1.85730        4.16670  S
atom                   7.90310        1.85790        1.02780  S
atom                   4.71390        3.66780        2.62120  Mo
atom                   6.30340        4.60430        4.16320  S
atom                   6.29630        4.59190        1.03500  S
atom                   4.30486        7.00506        4.17799  S
atom                   4.28712        6.95183        1.03752  S
atom                   1.56930        9.11080        2.57720  Mo
atom                   3.16110       10.01880        4.16380  S
atom                   3.17580       10.01840        1.03570  S
atom                   0.01030       11.87830        2.60330  Mo
atom                   1.59600       12.77690        4.17060  S
atom                   1.59400       12.77410        1.03180  S
atom                   9.48010        0.94420        2.59920  Mo
atom                  11.05500        1.85340        4.16990  S
atom                  11.05500        1.85330        1.02850  S
atom                   7.88900        3.68080        2.59920  Mo
atom                   9.47450        4.58040        4.17060  S
atom                   9.47330        4.58370        1.03170  S
atom                   6.31220        6.43670        2.57700  Mo
atom                   7.90600        7.31930        4.16170  S
atom                   7.92840        7.32160        1.03430  S
atom                   4.76760        9.11020        2.62270  Mo
atom                   6.34240       10.06810        4.16480  S
atom                   6.32860       10.04910        1.03740  S
atom                   3.16820       11.85350        2.59950  Mo
atom                   4.74240       12.77420        4.16680  S
atom                   4.74010       12.77670        1.02800  S
atom                  12.63000        0.94420        2.59920  Mo
atom                  14.20710        1.85810        4.17040  S
atom                  14.21040        1.85740        1.03160  S
atom                  11.05460        3.67180        2.59920  Mo
atom                  12.63580        4.58380        4.16670  S
atom                  12.63440        4.58060        1.02780  S
atom                   9.48860        6.40290        2.60330  Mo
atom                  11.05550        7.31820        4.17200  S
atom                  11.05230        7.31820        1.02650  S
atom                   7.91290        9.14370        2.59950  Mo
atom                   9.48220       10.04910        4.17200  S
atom                   9.48150       10.05000        1.02660  S
atom                   6.32600       11.87820        2.59540  Mo
atom                   7.90070       12.77490        4.17200  S
atom                   7.90210       12.77740        1.02640  S
