# 
# This is the geometry file that corresponds to the current relaxation step.
# If you do not want this file to be written, set the "write_restart_geometry" flag to .false.
#  aims_uuid : DABF2BA0-01CF-4BDD-A7FA-3006860BAC18                                
# 
  set_vacuum_level        52.254965
lattice_vector     15.76960250      0.00000000      0.00000000
lattice_vector     -7.88732950     13.65525595      0.00000000
lattice_vector      0.00000000      0.00000000     99.30554027
atom       0.04298204      1.00761932      2.59991190 Mo
atom       1.64626261      2.02696507      4.13500686 S
atom       1.64626800      2.02697894      1.06482051 S
atom      -1.51527937      3.71140353      2.59990889 Mo
atom       0.06400958      4.66982074      4.16286839 S
atom       0.06402514      4.66982012      1.03696097 S
atom      -3.18415175      6.42908420      2.59990419 Mo
atom      -1.65305191      7.36989156      4.17542355 S
atom      -1.65305530      7.36989748      1.02439250 S
atom      -4.77749660      9.15865079      2.59990689 Mo
atom      -3.21599156     10.09367429      4.17071140 S
atom      -3.21598853     10.09367631      1.02911423 S
atom      -6.33473204     11.89377848      2.59991312 Mo
atom      -4.75996622     12.84197962      4.15947259 S
atom      -4.75996559     12.84197893      1.04034912 S
atom       3.18810279      1.03017419      2.59990988 Mo
atom       4.76736284      1.90845757      4.18329164 S
atom       4.76735270      1.90845912      1.01651500 S
atom       1.71523448      3.91561160      2.59992021 Mo
atom       3.38519524      4.95643868      4.10588913 S
atom       3.38517334      4.95649822      1.09395399 S
atom      -0.05333982      6.49828073      2.59990395 Mo
atom       1.44246846      7.40474646      4.17151187 S
atom       1.44242747      7.40477318      1.02826095 S
atom      -1.64586500      9.18738982      2.59991092 Mo
atom      -0.07562916     10.10264596      4.17544803 S
atom      -0.07562578     10.10264755      1.02437838 S
atom      -3.18734658     11.91346459      2.59991167 Mo
atom      -1.59961985     12.81084260      4.17068783 S
atom      -1.59961938     12.81083455      1.02913054 S
atom       6.32736970      0.96535295      2.59990028 Mo
atom       7.94630550      1.81195001      4.17092708 S
atom       7.94630595      1.81194173      1.02886963 S
atom       4.88186078      3.71918809      2.59990791 Mo
atom       6.45392873      4.51193324      4.19900898 S
atom       6.45392264      4.51194223      1.00078452 S
atom       4.53411212      6.94689738      4.10586323 S
atom       4.53406124      6.94686193      1.09395213 S
atom       1.47927022      9.15341631      2.59991346 Mo
atom       3.12129340      9.96626080      4.16288894 S
atom       3.12130959      9.96624863      1.03695967 S
atom      -0.02666922     11.89899015      2.59991395 Mo
atom       1.59691664     12.74626570      4.16872838 S
atom       1.59691641     12.74625544      1.03109460 S
atom       9.51554030      0.90909730      2.59990214 Mo
atom      11.09252092      1.83451587      4.16827534 S
atom      11.09252252      1.83450985      1.03153292 S
atom       7.98894320      3.62589521      2.59989479 Mo
atom       9.53840324      4.57015204      4.17091625 S
atom       9.53840541      4.57015238      1.02887217 S
atom       6.35417756      6.26973627      2.59991520 Mo
atom       7.86486518      7.27451992      4.18333576 S
atom       7.86484308      7.27452032      1.01646819 S
atom       4.60025078      8.91354392      2.59994118 Mo
atom       6.20117989      9.91786744      4.13503825 S
atom       6.20115117      9.91785095      1.06479936 S
atom       3.16126224     11.81314171      2.59991482 Mo
atom       4.73957325     12.74325919      4.16525702 S
atom       4.73956942     12.74324980      1.03457340 S
atom      12.66109643      0.92904228      2.59990684 Mo
atom      14.23823812      1.87951116      4.16523814 S
atom      14.23823935      1.87951114      1.03457873 S
atom      11.10510633      3.66289762      2.59989732 Mo
atom      12.66386964      4.59936132      4.16867361 S
atom      12.66387604      4.59936350      1.03113387 S
atom       9.46178154      6.39543839      2.59989526 Mo
atom      11.00911118      7.33498681      4.17069941 S
atom      11.00911720      7.33499417      1.02910784 S
atom       7.83543453      9.08126228      2.59990363 Mo
atom       9.40144527     10.05591189      4.15946709 S
atom       9.40144678     10.05591634      1.04035318 S
atom       6.28193782     11.81597290      2.59990898 Mo
atom       7.86419311     12.80041496      4.15373587 S
atom       7.86419454     12.80041437      1.04609157 S
# 
# What follows is the current estimated Hessian matrix constructed by the BFGS algorithm.
# This is NOT the true Hessian matrix of the system.
# If you do not want this information here, switch it off using the "hessian_to_restart_geometry" keyword.
# 
trust_radius             0.0004400969
hessian_file
