# 
# This is the geometry file that corresponds to the current relaxation step.
# If you do not want this file to be written, set the "write_restart_geometry" flag to .false.
#  aims_uuid : 1FB189B5-106C-40CD-A7FF-C96CC0DABD5D                                
# 
  set_vacuum_level        52.254965
lattice_vector     15.76960250      0.00000000      0.00000000
lattice_vector     -7.88732950     13.65525595      0.00000000
lattice_vector      0.00000000      0.00000000     99.30554027
atom       0.04298244      1.00770255      2.60008246 Mo
atom       1.64635192      2.02724000      4.13508334 S
atom       1.64623158      2.02707427      1.06487068 S
atom      -1.51530744      3.71137352      2.59994852 Mo
atom       0.06405617      4.66993399      4.16281063 S
atom       0.06399315      4.66985409      1.03695067 S
atom      -3.18410387      6.42906819      2.59987329 Mo
atom      -1.65308693      7.36995772      4.17542900 S
atom      -1.65310415      7.36997579      1.02430019 S
atom      -4.77753240      9.15868548      2.59994084 Mo
atom      -3.21600864     10.09367830      4.17071249 S
atom      -3.21606296     10.09371420      1.02913577 S
atom      -6.33474934     11.89381226      2.60006607 Mo
atom      -4.75993462     12.84208614      4.15954378 S
atom      -4.76004568     12.84205291      1.04045755 S
atom       3.18807121      1.03032081      2.59996083 Mo
atom       4.76745970      1.90852176      4.18323978 S
atom       4.76736736      1.90839681      1.01647206 S
atom       1.71527721      3.91586810      2.59984925 Mo
atom       3.38547195      4.95685780      4.10593279 S
atom       3.38528139      4.95650898      1.09373862 S
atom      -0.05335840      6.49834378      2.59985631 Mo
atom       1.44247868      7.40475140      4.17150861 S
atom       1.44254131      7.40472390      1.02830459 S
atom      -1.64584124      9.18738325      2.59988653 Mo
atom      -0.07566142     10.10270308      4.17543919 S
atom      -0.07565746     10.10270031      1.02430399 S
atom      -3.18738174     11.91344924      2.59994239 Mo
atom      -1.59964655     12.81089220      4.17069539 S
atom      -1.59969959     12.81082841      1.02908081 S
atom       6.32742673      0.96535230      2.59984646 Mo
atom       7.94633317      1.81196342      4.17087626 S
atom       7.94636294      1.81188495      1.02876479 S
atom       4.88192240      3.71915336      2.59977243 Mo
atom       6.45405924      4.51185622      4.19883466 S
atom       6.45400596      4.51187026      1.00071211 S
atom       4.53390560      6.94640005      4.10588641 S
atom       4.53410855      6.94687852      1.09376950 S
atom       1.47916683      9.15342069      2.59987228 Mo
atom       3.12126530      9.96614812      4.16282908 S
atom       3.12127790      9.96622936      1.03696375 S
atom      -0.02678188     11.89903935      2.59988157 Mo
atom       1.59688763     12.74622142      4.16869487 S
atom       1.59696096     12.74617702      1.03111112 S
atom       9.51553462      0.90909022      2.59987636 Mo
atom      11.09250342      1.83448745      4.16829496 S
atom      11.09262972      1.83440886      1.03154746 S
atom       7.98910127      3.62584716      2.59977279 Mo
atom       9.53846882      4.57009818      4.17083409 S
atom       9.53854712      4.57011171      1.02878707 S
atom       6.35414030      6.26968042      2.59975777 Mo
atom       7.86477345      7.27437784      4.18326894 S
atom       7.86482744      7.27452577      1.01643758 S
atom       4.60005332      8.91326987      2.59984969 Mo
atom       6.20094338      9.91760862      4.13504807 S
atom       6.20102301      9.91779901      1.06491836 S
atom       3.16131397     11.81311954      2.59996765 Mo
atom       4.73953572     12.74323683      4.16538759 S
atom       4.73964084     12.74323603      1.03468869 S
atom      12.66117081      0.92911351      2.60002337 Mo
atom      14.23831591      1.87957015      4.16542086 S
atom      14.23836269      1.87947247      1.03462700 S
atom      11.10520681      3.66284867      2.59987322 Mo
atom      12.66387325      4.59941850      4.16871094 S
atom      12.66394728      4.59936845      1.03107296 S
atom       9.46175558      6.39542842      2.59983810 Mo
atom      11.00908897      7.33495665      4.17063964 S
atom      11.00911176      7.33503803      1.02911346 S
atom       7.83534534      9.08121801      2.59995998 Mo
atom       9.40134146     10.05585345      4.15953982 S
atom       9.40131845     10.05596881      1.04045869 S
atom       6.28186707     11.81594275      2.60008934 Mo
atom       7.86416549     12.80041913      4.15389181 S
atom       7.86414977     12.80043127      1.04630201 S
# 
# What follows is the current estimated Hessian matrix constructed by the BFGS algorithm.
# This is NOT the true Hessian matrix of the system.
# If you do not want this information here, switch it off using the "hessian_to_restart_geometry" keyword.
# 
trust_radius             0.0008801938
hessian_file
