# 
# This is the geometry file that corresponds to the current relaxation step.
# If you do not want this file to be written, set the "write_restart_geometry" flag to .false.
#  aims_uuid : 29C8500D-27C9-4BFA-A572-64FAC4A2930B                                
# 
lattice_vector      3.14425310     -0.00000002      0.00000004
lattice_vector     -0.00000002      3.14107425      0.00000003
lattice_vector      0.00000004      0.00000003      3.14060032
atom       0.00009258      0.00008158     -0.00062626 W
atom       1.57221811      1.57054466      1.56967372 W
# 
# What follows is the current estimated Hessian matrix constructed by the BFGS algorithm.
# This is NOT the true Hessian matrix of the system.
# If you do not want this information here, switch it off using the "hessian_to_restart_geometry" keyword.
# 
trust_radius             0.0002842047
hessian_file
