#=======================================================
# FHI-aims file: geometry_mos2.in
# Created using the Atomic Simulation Environment (ASE)
# Fri Jan 21 11:47:35 2022
#=======================================================
lattice_vector 34.4669938800000040 -0.0028670400000000 0.0000000000000000 
lattice_vector -17.2357084900000004 29.8474000000000004 0.0000000000000000 
lattice_vector 0.0000000000000000 0.0000000000000000 103.0909873699999935 
atom 16.4479229300000043 29.3924105400000037 51.5454936199999949 Mo
atom 0.7833348700000000 0.4521344400000000 53.0909873700000006 S
atom 0.7833348600000000 0.4521344400000000 50.0000000000000000 S
atom 32.1167488300000059 2.2584105399999999 51.5454936199999949 Mo
atom -0.7835477200000001 3.1655344400000005 53.0909873700000006 S
atom -0.7835477300000002 3.1655344400000001 50.0000000000000000 S
atom 30.5498662400000072 4.9718105399999999 51.5454936199999949 Mo
atom -2.3504303100000001 5.8789344400000001 53.0909873700000006 S
atom -2.3504303200000001 5.8789344400000001 50.0000000000000000 S
atom 28.9829836500000049 7.6852105399999999 51.5454936199999949 Mo
atom -3.9173128999999993 8.5923344400000019 53.0909873700000006 S
atom -3.9173129099999993 8.5923344400000001 50.0000000000000000 S
atom 27.4161010600000061 10.3986105400000000 51.5454936199999949 Mo
atom -5.4841954900000003 11.3057344400000002 53.0909873700000006 S
atom -5.4841955000000002 11.3057344400000002 50.0000000000000000 S
atom 25.8492184700000038 13.1120105400000018 51.5454936199999949 Mo
atom -7.0510780800000008 14.0191344400000037 53.0909873700000006 S
atom -7.0510780900000007 14.0191344400000020 50.0000000000000000 S
atom 24.2823358800000051 15.8254105400000018 51.5454936199999949 Mo
atom -8.6179606699999987 16.7325344400000056 53.0909873700000006 S
atom -8.6179606799999995 16.7325344400000056 50.0000000000000000 S
atom 22.7154532900000063 18.5388105400000036 51.5454936199999949 Mo
atom -10.1848432600000010 19.4459344400000056 53.0909873700000006 S
atom -10.1848432700000000 19.4459344400000056 50.0000000000000000 S
atom 21.1485707000000041 21.2522105400000036 51.5454936199999949 Mo
atom -11.7517258499999997 22.1593344400000021 53.0909873700000006 S
atom -11.7517258600000005 22.1593344400000021 50.0000000000000000 S
atom 19.5816881100000053 23.9656105400000037 51.5454936199999949 Mo
atom -13.3186084400000020 24.8727344400000021 53.0909873700000006 S
atom -13.3186084500000010 24.8727344400000021 50.0000000000000000 S
atom 18.0148055200000030 26.6790105400000073 51.5454936199999949 Mo
atom -14.8854910300000007 27.5861344400000057 53.0909873700000006 S
atom -14.8854910400000016 27.5861344400000057 50.0000000000000000 S
atom -14.8857078700000010 29.3950169400000014 51.5454936199999949 Mo
atom 3.9166979500000010 0.4518738000000000 53.0909873700000006 S
atom 3.9166979400000010 0.4518738000000001 50.0000000000000000 S
atom 0.7831180300000006 2.2610169400000002 51.5454936199999949 Mo
atom 2.3498153600000009 3.1652738000000005 53.0909873700000006 S
atom 2.3498153500000010 3.1652738000000000 50.0000000000000000 S
atom -0.7837645599999997 4.9744169400000002 51.5454936199999949 Mo
atom 0.7829327700000004 5.8786738000000014 53.0909873700000006 S
atom 0.7829327599999998 5.8786738000000005 50.0000000000000000 S
atom -2.3506471499999999 7.6878169400000003 51.5454936199999949 Mo
atom -0.7839498199999996 8.5920737999999997 53.0909873700000006 S
atom -0.7839498299999988 8.5920737999999997 50.0000000000000000 S
atom -3.9175297400000004 10.4012169399999994 51.5454936199999949 Mo
atom -2.3508324100000002 11.3054737999999997 53.0909873700000006 S
atom -2.3508324199999993 11.3054737999999997 50.0000000000000000 S
atom -5.4844123300000005 13.1146169400000012 51.5454936199999949 Mo
atom -3.9177150000000007 14.0188738000000015 53.0909873700000006 S
atom -3.9177150099999998 14.0188738000000015 50.0000000000000000 S
atom -7.0512949199999984 15.8280169400000013 51.5454936199999949 Mo
atom -5.4845975899999990 16.7322738000000051 53.0909873700000006 S
atom -5.4845975999999999 16.7322738000000051 50.0000000000000000 S
atom -8.6181775099999989 18.5414169400000013 51.5454936199999949 Mo
atom -7.0514801799999995 19.4456738000000051 53.0909873700000006 S
atom -7.0514801900000004 19.4456738000000016 50.0000000000000000 S
atom -10.1850600999999994 21.2548169400000013 51.5454936199999949 Mo
atom -8.6183627700000009 22.1590738000000016 53.0909873700000006 S
atom -8.6183627800000000 22.1590738000000016 50.0000000000000000 S
atom -11.7519426899999999 23.9682169400000085 51.5454936199999949 Mo
atom -10.1852453599999997 24.8724738000000052 53.0909873700000006 S
atom -10.1852453700000005 24.8724738000000052 50.0000000000000000 S
atom -13.3188252800000004 26.6816169400000049 51.5454936199999949 Mo
atom -11.7521279500000020 27.5858738000000052 53.0909873700000006 S
atom -11.7521279600000010 27.5858738000000052 50.0000000000000000 S
atom -11.7523447900000004 29.3947563000000009 51.5454936199999949 Mo
atom 7.0500610300000019 0.4516131600000000 53.0909873700000006 S
atom 7.0500610200000011 0.4516131600000001 50.0000000000000000 S
atom 3.9164811099999999 2.2607562999999997 51.5454936199999949 Mo
atom 5.4831784399999997 3.1650131600000004 53.0909873700000006 S
atom 5.4831784300000006 3.1650131600000000 50.0000000000000000 S
atom 2.3495985200000007 4.9741562999999998 51.5454936199999949 Mo
atom 3.9162958500000014 5.8784131600000000 53.0909873700000006 S
atom 3.9162958400000014 5.8784131600000000 50.0000000000000000 S
atom 0.7827159300000007 7.6875562999999998 51.5454936199999949 Mo
atom 2.3494132599999999 8.5918131599999992 53.0909873700000006 S
atom 2.3494132500000018 8.5918131599999992 50.0000000000000000 S
atom -0.7841666599999998 10.4009563000000007 51.5454936199999949 Mo
atom 0.7825306700000012 11.3052131600000028 53.0909873700000006 S
atom 0.7825306600000010 11.3052131600000010 50.0000000000000000 S
atom -2.3510492500000004 13.1143563000000007 51.5454936199999949 Mo
atom -0.7843519200000011 14.0186131600000010 53.0909873700000006 S
atom -0.7843519299999995 14.0186131600000010 50.0000000000000000 S
atom -3.9179318399999983 15.8277563000000008 51.5454936199999949 Mo
atom -2.3512345099999981 16.7320131600000046 53.0909873700000006 S
atom -2.3512345199999993 16.7320131600000046 50.0000000000000000 S
atom -5.4848144299999984 18.5411563000000008 51.5454936199999949 Mo
atom -3.9181170999999986 19.4454131600000011 53.0909873700000006 S
atom -3.9181171099999994 19.4454131600000011 50.0000000000000000 S
atom -7.0516970199999998 21.2545563000000044 51.5454936199999949 Mo
atom -5.4849996899999995 22.1588131600000011 53.0909873700000006 S
atom -5.4849997000000004 22.1588131600000011 50.0000000000000000 S
atom -8.6185796099999994 23.9679563000000080 51.5454936199999949 Mo
atom -7.0518822800000001 24.8722131600000047 53.0909873700000006 S
atom -7.0518822900000009 24.8722131600000047 50.0000000000000000 S
atom -10.1854621999999999 26.6813563000000045 51.5454936199999949 Mo
atom -8.6187648699999997 27.5856131600000047 53.0909873700000006 S
atom -8.6187648800000005 27.5856131600000047 50.0000000000000000 S
atom -8.6189817100000017 29.3944956600000040 51.5454936199999949 Mo
atom 10.1834241100000007 0.4513525200000000 53.0909873700000006 S
atom 10.1834240999999999 0.4513525200000000 50.0000000000000000 S
atom 7.0498441899999982 2.2604956600000001 51.5454936199999949 Mo
atom 8.6165415199999984 3.1647525200000004 53.0909873700000006 S
atom 8.6165415100000011 3.1647525200000000 50.0000000000000000 S
atom 5.4829615999999985 4.9738956600000002 51.5454936199999949 Mo
atom 7.0496589299999997 5.8781525200000013 53.0909873700000006 S
atom 7.0496589199999997 5.8781525200000004 50.0000000000000000 S
atom 3.9160790099999994 7.6872956599999984 51.5454936199999949 Mo
atom 5.4827763400000009 8.5915525199999987 53.0909873700000006 S
atom 5.4827763300000001 8.5915525200000005 50.0000000000000000 S
atom 2.3491964199999980 10.4006956600000002 51.5454936199999949 Mo
atom 3.9158937500000000 11.3049525200000005 53.0909873700000006 S
atom 3.9158937400000000 11.3049525200000005 50.0000000000000000 S
atom 0.7823138299999984 13.1140956600000003 51.5454936199999949 Mo
atom 2.3490111599999994 14.0183525200000005 53.0909873700000006 S
atom 2.3490111499999986 14.0183525200000005 50.0000000000000000 S
atom -0.7845687599999985 15.8274956600000003 51.5454936199999949 Mo
atom 0.7821285700000015 16.7317525200000041 53.0909873700000006 S
atom 0.7821285599999996 16.7317525200000006 50.0000000000000000 S
atom -2.3514513499999992 18.5408956600000039 51.5454936199999949 Mo
atom -0.7847540200000007 19.4451525200000006 53.0909873700000006 S
atom -0.7847540300000009 19.4451525200000006 50.0000000000000000 S
atom -3.9183339400000015 21.2542956600000075 51.5454936199999949 Mo
atom -2.3516366100000012 22.1585525200000042 53.0909873700000006 S
atom -2.3516366200000016 22.1585525200000042 50.0000000000000000 S
atom -5.4852165300000006 23.9676956600000040 51.5454936199999949 Mo
atom -3.9185192000000018 24.8719525200000042 53.0909873700000006 S
atom -3.9185192100000021 24.8719525200000042 50.0000000000000000 S
atom -7.0520991200000012 26.6810956600000040 51.5454936199999949 Mo
atom -5.4854017900000027 27.5853525200000043 53.0909873700000006 S
atom -5.4854018000000027 27.5853525200000007 50.0000000000000000 S
atom -5.4856186299999985 29.3942350200000035 51.5454936199999949 Mo
atom 13.3167871900000030 0.4510918800000000 53.0909873700000006 S
atom 13.3167871800000022 0.4510918800000001 50.0000000000000000 S
atom 10.1832072700000023 2.2602350199999997 51.5454936199999949 Mo
atom 11.7499046000000007 3.1644918799999995 53.0909873700000006 S
atom 11.7499045900000034 3.1644918799999999 50.0000000000000000 S
atom 8.6163246800000017 4.9736350199999997 51.5454936199999949 Mo
atom 10.1830220100000020 5.8778918800000000 53.0909873700000006 S
atom 10.1830220000000011 5.8778918800000000 50.0000000000000000 S
atom 7.0494420900000012 7.6870350199999997 51.5454936199999949 Mo
atom 8.6161394200000032 8.5912918800000018 53.0909873700000006 S
atom 8.6161394100000024 8.5912918800000000 50.0000000000000000 S
atom 5.4825595000000016 10.4004350199999998 51.5454936199999949 Mo
atom 7.0492568300000027 11.3046918800000000 53.0909873700000006 S
atom 7.0492568200000019 11.3046918800000000 50.0000000000000000 S
atom 3.9156769099999997 13.1138350200000016 51.5454936199999949 Mo
atom 5.4823742400000013 14.0180918800000018 53.0909873700000006 S
atom 5.4823742300000013 14.0180918800000018 50.0000000000000000 S
atom 2.3487943200000019 15.8272350199999980 51.5454936199999949 Mo
atom 3.9154916500000021 16.7314918800000001 53.0909873700000006 S
atom 3.9154916400000022 16.7314918800000001 50.0000000000000000 S
atom 0.7819117300000014 18.5406350200000034 51.5454936199999949 Mo
atom 2.3486090600000016 19.4448918800000001 53.0909873700000006 S
atom 2.3486090500000016 19.4448918800000001 50.0000000000000000 S
atom -0.7849708599999975 21.2540350200000070 51.5454936199999949 Mo
atom 0.7817264700000011 22.1582918800000037 53.0909873700000006 S
atom 0.7817264600000009 22.1582918800000037 50.0000000000000000 S
atom -2.3518534499999997 23.9674350200000035 51.5454936199999949 Mo
atom -0.7851561199999996 24.8716918800000037 53.0909873700000006 S
atom -0.7851561299999997 24.8716918800000037 50.0000000000000000 S
atom -3.9187360400000002 26.6808350200000035 51.5454936199999949 Mo
atom -2.3520387099999982 27.5850918800000002 53.0909873700000006 S
atom -2.3520387199999999 27.5850918800000002 50.0000000000000000 S
atom -2.3522555499999984 29.3939743800000031 51.5454936199999949 Mo
atom 16.4501502700000017 0.4508312400000000 53.0909873700000006 S
atom 16.4501502600000009 0.4508312400000000 50.0000000000000000 S
atom 13.3165703500000028 2.2599743800000001 51.5454936199999949 Mo
atom 14.8832676800000048 3.1642312400000003 53.0909873700000006 S
atom 14.8832676700000004 3.1642312400000003 50.0000000000000000 S
atom 11.7496877600000040 4.9733743800000001 51.5454936199999949 Mo
atom 13.3163850900000007 5.8776312400000013 53.0909873700000006 S
atom 13.3163850800000017 5.8776312400000004 50.0000000000000000 S
atom 10.1828051700000035 7.6867743800000001 51.5454936199999949 Mo
atom 11.7495025000000020 8.5910312399999995 53.0909873700000006 S
atom 11.7495024900000011 8.5910312399999995 50.0000000000000000 S
atom 8.6159225800000030 10.4001743800000011 51.5454936199999949 Mo
atom 10.1826199100000032 11.3044312400000013 53.0909873700000006 S
atom 10.1826199000000006 11.3044312400000013 50.0000000000000000 S
atom 7.0490399900000025 13.1135743800000011 51.5454936199999949 Mo
atom 8.6157373200000009 14.0178312400000014 53.0909873700000006 S
atom 8.6157373100000001 14.0178312400000014 50.0000000000000000 S
atom 5.4821574000000046 15.8269743799999976 51.5454936199999949 Mo
atom 7.0488547300000048 16.7312312399999996 53.0909873700000006 S
atom 7.0488547200000005 16.7312312399999996 50.0000000000000000 S
atom 3.9152748100000037 18.5403743800000065 51.5454936199999949 Mo
atom 5.4819721400000034 19.4446312400000032 53.0909873700000006 S
atom 5.4819721299999999 19.4446312400000032 50.0000000000000000 S
atom 2.3483922200000014 21.2537743800000030 51.5454936199999949 Mo
atom 3.9150895500000034 22.1580312400000032 53.0909873700000006 S
atom 3.9150895399999994 22.1580312400000032 50.0000000000000000 S
atom 0.7815096300000026 23.9671743800000030 51.5454936199999949 Mo
atom 2.3482069600000028 24.8714312400000033 53.0909873700000006 S
atom 2.3482069500000011 24.8714312399999997 50.0000000000000000 S
atom -0.7853729599999980 26.6805743800000066 51.5454936199999949 Mo
atom 0.7813243700000005 27.5848312399999998 53.0909873700000006 S
atom 0.7813243600000004 27.5848312399999998 50.0000000000000000 S
atom 0.7811075300000003 29.3937137400000026 51.5454936199999949 Mo
atom 19.5835133500000005 0.4505706000000000 53.0909873700000006 S
atom 19.5835133399999997 0.4505706000000000 50.0000000000000000 S
atom 16.4499334300000015 2.2597137400000005 51.5454936199999949 Mo
atom 18.0166307600000017 3.1639706000000003 53.0909873700000006 S
atom 18.0166307500000009 3.1639706000000003 50.0000000000000000 S
atom 14.8830508399999992 4.9731137399999996 51.5454936199999949 Mo
atom 16.4497481699999994 5.8773705999999999 53.0909873700000006 S
atom 16.4497481599999986 5.8773705999999999 50.0000000000000000 S
atom 13.3161682500000023 7.6865137399999997 51.5454936199999949 Mo
atom 14.8828655800000007 8.5907705999999990 53.0909873700000006 S
atom 14.8828655699999999 8.5907705999999990 50.0000000000000000 S
atom 11.7492856600000017 10.3999137400000006 51.5454936199999949 Mo
atom 13.3159829900000002 11.3041706000000008 53.0909873700000006 S
atom 13.3159829799999994 11.3041706000000008 50.0000000000000000 S
atom 10.1824030699999977 13.1133137400000006 51.5454936199999949 Mo
atom 11.7491003999999997 14.0175706000000009 53.0909873700000006 S
atom 11.7491003899999988 14.0175706000000009 50.0000000000000000 S
atom 8.6155204800000025 15.8267137399999971 51.5454936199999949 Mo
atom 10.1822178099999991 16.7309705999999991 53.0909873700000006 S
atom 10.1822178000000001 16.7309705999999991 50.0000000000000000 S
atom 7.0486378899999984 18.5401137400000060 51.5454936199999949 Mo
atom 8.6153352199999986 19.4443706000000027 53.0909873700000006 S
atom 8.6153352099999996 19.4443706000000027 50.0000000000000000 S
atom 5.4817552999999997 21.2535137400000025 51.5454936199999949 Mo
atom 7.0484526299999981 22.1577706000000028 53.0909873700000006 S
atom 7.0484526199999982 22.1577706000000028 50.0000000000000000 S
atom 3.9148727099999996 23.9669137400000025 51.5454936199999949 Mo
atom 5.4815700400000003 24.8711705999999992 53.0909873700000006 S
atom 5.4815700299999959 24.8711705999999992 50.0000000000000000 S
atom 2.3479901199999991 26.6803137400000061 51.5454936199999949 Mo
atom 3.9146874499999993 27.5845706000000028 53.0909873700000006 S
atom 3.9146874399999958 27.5845706000000028 50.0000000000000000 S
atom 3.9144706100000026 29.3934531000000021 51.5454936199999949 Mo
atom 22.7168764300000028 0.4503099600000000 53.0909873700000006 S
atom 22.7168764200000020 0.4503099600000001 50.0000000000000000 S
atom 19.5832965100000038 2.2594531000000004 51.5454936199999949 Mo
atom 21.1499938400000040 3.1637099600000007 53.0909873700000006 S
atom 21.1499938300000032 3.1637099600000003 50.0000000000000000 S
atom 18.0164139200000015 4.9728531000000000 51.5454936199999949 Mo
atom 19.5831112500000017 5.8771099600000012 53.0909873700000006 S
atom 19.5831112400000009 5.8771099600000003 50.0000000000000000 S
atom 16.4495313300000028 7.6862531000000001 51.5454936199999949 Mo
atom 18.0162286600000030 8.5905099600000003 53.0909873700000006 S
atom 18.0162286500000022 8.5905099600000003 50.0000000000000000 S
atom 14.8826487400000040 10.3996531000000001 51.5454936199999949 Mo
atom 16.4493460700000007 11.3039099600000004 53.0909873700000006 S
atom 16.4493460599999999 11.3039099600000004 50.0000000000000000 S
atom 13.3157661500000035 13.1130531000000019 51.5454936199999949 Mo
atom 14.8824634800000002 14.0173099600000022 53.0909873700000006 S
atom 14.8824634700000011 14.0173099600000022 50.0000000000000000 S
atom 11.7488835600000030 15.8264531000000019 51.5454936199999949 Mo
atom 13.3155808900000014 16.7307099600000022 53.0909873700000006 S
atom 13.3155808800000024 16.7307099600000022 50.0000000000000000 S
atom 10.1820009700000025 18.5398531000000020 51.5454936199999949 Mo
atom 11.7486983000000009 19.4441099600000022 53.0909873700000006 S
atom 11.7486982900000019 19.4441099600000022 50.0000000000000000 S
atom 8.6151183800000020 21.2532531000000020 51.5454936199999949 Mo
atom 10.1818157100000004 22.1575099600000023 53.0909873700000006 S
atom 10.1818156999999996 22.1575099599999987 50.0000000000000000 S
atom 7.0482357900000014 23.9666531000000056 51.5454936199999949 Mo
atom 8.6149331200000017 24.8709099599999988 53.0909873700000006 S
atom 8.6149331099999991 24.8709099599999988 50.0000000000000000 S
atom 5.4813531999999991 26.6800531000000092 51.5454936199999949 Mo
atom 7.0480505300000011 27.5843099600000095 53.0909873700000006 S
atom 7.0480505200000012 27.5843099600000095 50.0000000000000000 S
atom 7.0478336900000054 29.3931924600000016 51.5454936199999949 Mo
atom 25.8502395100000051 0.4500493200000000 53.0909873700000006 S
atom 25.8502395000000043 0.4500493200000000 50.0000000000000000 S
atom 22.7166595900000061 2.2591924600000004 51.5454936199999949 Mo
atom 24.2833569200000063 3.1634493200000007 53.0909873700000006 S
atom 24.2833569100000055 3.1634493200000002 50.0000000000000000 S
atom 21.1497770000000038 4.9725924599999995 51.5454936199999949 Mo
atom 22.7164743300000040 5.8768493199999998 53.0909873700000006 S
atom 22.7164743199999997 5.8768493199999998 50.0000000000000000 S
atom 19.5828944100000051 7.6859924600000005 51.5454936199999949 Mo
atom 21.1495917400000053 8.5902493199999999 53.0909873700000006 S
atom 21.1495917300000045 8.5902493199999999 50.0000000000000000 S
atom 18.0160118200000028 10.3993924599999996 51.5454936199999949 Mo
atom 19.5827091500000030 11.3036493199999999 53.0909873700000006 S
atom 19.5827091400000022 11.3036493199999999 50.0000000000000000 S
atom 16.4491292300000040 13.1127924600000014 51.5454936199999949 Mo
atom 18.0158265600000043 14.0170493200000017 53.0909873700000006 S
atom 18.0158265500000034 14.0170493200000017 50.0000000000000000 S
atom 14.8822466400000053 15.8261924600000015 51.5454936199999949 Mo
atom 16.4489439700000055 16.7304493200000017 53.0909873700000006 S
atom 16.4489439600000047 16.7304493200000017 50.0000000000000000 S
atom 13.3153640500000048 18.5395924600000015 51.5454936199999949 Mo
atom 14.8820613800000032 19.4438493200000018 53.0909873700000006 S
atom 14.8820613700000042 19.4438493200000018 50.0000000000000000 S
atom 11.7484814600000043 21.2529924600000015 51.5454936199999949 Mo
atom 13.3151787900000045 22.1572493199999982 53.0909873700000006 S
atom 13.3151787800000019 22.1572493199999982 50.0000000000000000 S
atom 10.1815988700000020 23.9663924600000087 51.5454936199999949 Mo
atom 11.7482962000000004 24.8706493200000054 53.0909873700000006 S
atom 11.7482961900000049 24.8706493200000054 50.0000000000000000 S
atom 8.6147162800000014 26.6797924600000087 51.5454936199999949 Mo
atom 10.1814136100000034 27.5840493200000090 53.0909873700000006 S
atom 10.1814136000000026 27.5840493200000090 50.0000000000000000 S
atom 10.1811967700000068 29.3929318200000012 51.5454936199999949 Mo
atom 28.9836025900000074 0.4497886800000001 53.0909873700000006 S
atom 28.9836025800000066 0.4497886800000001 50.0000000000000000 S
atom 25.8500226700000084 2.2589318199999999 51.5454936199999949 Mo
atom 27.4167200000000086 3.1631886800000006 53.0909873700000006 S
atom 27.4167199900000078 3.1631886800000002 50.0000000000000000 S
atom 24.2831400800000061 4.9723318200000000 51.5454936199999949 Mo
atom 25.8498374100000063 5.8765886800000002 53.0909873700000006 S
atom 25.8498374000000055 5.8765886800000002 50.0000000000000000 S
atom 22.7162574900000074 7.6857318200000000 51.5454936199999949 Mo
atom 24.2829548200000076 8.5899886799999994 53.0909873700000006 S
atom 24.2829548100000068 8.5899886799999994 50.0000000000000000 S
atom 21.1493749000000051 10.3991318200000009 51.5454936199999949 Mo
atom 22.7160722300000053 11.3033886800000012 53.0909873700000006 S
atom 22.7160722200000045 11.3033886800000012 50.0000000000000000 S
atom 19.5824923100000063 13.1125318200000009 51.5454936199999949 Mo
atom 21.1491896400000066 14.0167886800000012 53.0909873700000006 S
atom 21.1491896300000057 14.0167886800000012 50.0000000000000000 S
atom 18.0156097200000076 15.8259318200000010 51.5454936199999949 Mo
atom 19.5823070500000078 16.7301886800000013 53.0909873700000006 S
atom 19.5823070400000070 16.7301886800000013 50.0000000000000000 S
atom 16.4487271300000089 18.5393318200000010 51.5454936199999949 Mo
atom 18.0154244600000091 19.4435886800000013 53.0909873700000006 S
atom 18.0154244500000082 19.4435886799999977 50.0000000000000000 S
atom 14.8818445400000066 21.2527318200000046 51.5454936199999949 Mo
atom 16.4485418700000068 22.1569886799999978 53.0909873700000006 S
atom 16.4485418600000024 22.1569886799999978 50.0000000000000000 S
atom 13.3149619500000043 23.9661318200000082 51.5454936199999949 Mo
atom 14.8816592800000027 24.8703886800000085 53.0909873700000006 S
atom 14.8816592700000072 24.8703886800000085 50.0000000000000000 S
atom 11.7480793600000055 26.6795318200000047 51.5454936199999949 Mo
atom 13.3147766900000057 27.5837886800000085 53.0909873700000006 S
atom 13.3147766800000049 27.5837886800000085 50.0000000000000000 S
atom 13.3145598500000055 29.3926711800000042 51.5454936199999949 Mo
atom 32.1169656700000061 0.4495280400000000 53.0909873700000006 S
atom 32.1169656600000053 0.4495280400000000 50.0000000000000000 S
atom 28.9833857500000072 2.2586711800000003 51.5454936199999949 Mo
atom 30.5500830800000074 3.1629280400000006 53.0909873700000006 S
atom 30.5500830700000066 3.1629280400000002 50.0000000000000000 S
atom 27.4165031600000049 4.9720711800000004 51.5454936199999949 Mo
atom 28.9832004900000015 5.8763280400000006 53.0909873700000006 S
atom 28.9832004800000043 5.8763280400000006 50.0000000000000000 S
atom 25.8496205700000026 7.6854711800000004 51.5454936199999949 Mo
atom 27.4163179000000028 8.5897280399999989 53.0909873700000006 S
atom 27.4163178900000055 8.5897280399999989 50.0000000000000000 S
atom 24.2827379800000038 10.3988711800000004 51.5454936199999949 Mo
atom 25.8494353100000005 11.3031280400000007 53.0909873700000006 S
atom 25.8494353000000068 11.3031280400000007 50.0000000000000000 S
atom 22.7158553900000051 13.1122711800000005 51.5454936199999949 Mo
atom 24.2825527200000018 14.0165280400000007 53.0909873700000006 S
atom 24.2825527100000045 14.0165280400000007 50.0000000000000000 S
atom 21.1489728000000063 15.8256711800000005 51.5454936199999949 Mo
atom 22.7156701300000101 16.7299280400000008 53.0909873700000006 S
atom 22.7156701200000057 16.7299280400000008 50.0000000000000000 S
atom 19.5820902100000112 18.5390711800000005 51.5454936199999949 Mo
atom 21.1487875400000114 19.4433280399999973 53.0909873700000006 S
atom 21.1487875300000070 19.4433280399999973 50.0000000000000000 S
atom 18.0152076200000089 21.2524711800000077 51.5454936199999949 Mo
atom 19.5819049500000055 22.1567280400000044 53.0909873700000006 S
atom 19.5819049400000011 22.1567280400000044 50.0000000000000000 S
atom 16.4483250300000030 23.9658711800000077 51.5454936199999949 Mo
atom 18.0150223600000068 24.8701280400000080 53.0909873700000006 S
atom 18.0150223500000024 24.8701280400000080 50.0000000000000000 S
atom 14.8814424400000043 26.6792711800000042 51.5454936199999949 Mo
atom 16.4481397700000045 27.5835280400000080 53.0909873700000006 S
atom 16.4481397600000037 27.5835280400000045 50.0000000000000000 S
