#=======================================================
# FHI-aims file: geometry_supercell.in
# Created using the Atomic Simulation Environment (ASE)
# Mon Jan 24 08:16:23 2022
#=======================================================
lattice_vector 35.1722890823736805 0.0000000000000000 0.0000000000000000 
lattice_vector 17.5861445411868402 30.4600958545856670 0.0000000000000000 
lattice_vector 0.0000000000000000 0.0000000000000000 107.1795134447899329 
atom 0.0000000000000000 0.0000000000000000 50.0000000000000000 Au
atom 1.4655120450989032 0.8461137737384907 52.3931711482633062 Au
atom 35.1722890823736876 1.6922275474769815 54.7863422965266196 Au
atom 0.0000000000000000 0.0000000000000000 57.1795134447899258 Au
atom 0.0000000000000000 0.0000000000000000 50.0000000000000000 Au
atom 1.4655120450989032 0.8461137737384907 52.3931711482633062 Au
atom 35.1722890823736876 1.6922275474769815 54.7863422965266196 Au
atom 0.0000000000000000 0.0000000000000000 57.1795134447899258 Au
atom 0.0000000000000000 0.0000000000000000 50.0000000000000000 Au
atom 1.4655120450989032 0.8461137737384907 52.3931711482633062 Au
atom 35.1722890823736876 1.6922275474769815 54.7863422965266196 Au
atom 0.0000000000000000 0.0000000000000000 57.1795134447899258 Au
atom 0.0000000000000000 0.0000000000000000 50.0000000000000000 Au
atom 1.4655120450989032 0.8461137737384907 52.3931711482633062 Au
atom 35.1722890823736876 1.6922275474769815 54.7863422965266196 Au
atom 0.0000000000000000 0.0000000000000000 57.1795134447899258 Au
atom 1.4655120450989032 2.5383413212154720 50.0000000000000000 Au
atom 2.9310240901978064 3.3844550949539629 52.3931711482633062 Au
atom 36.6378011274725850 4.2305688686924530 54.7863422965266196 Au
atom 1.4655120450989032 2.5383413212154720 57.1795134447899258 Au
atom 1.4655120450989032 2.5383413212154720 50.0000000000000000 Au
atom 2.9310240901978064 3.3844550949539629 52.3931711482633062 Au
atom 36.6378011274725850 4.2305688686924530 54.7863422965266196 Au
atom 1.4655120450989032 2.5383413212154720 57.1795134447899258 Au
atom 1.4655120450989032 2.5383413212154720 50.0000000000000000 Au
atom 2.9310240901978064 3.3844550949539629 52.3931711482633062 Au
atom 36.6378011274725850 4.2305688686924530 54.7863422965266196 Au
atom 1.4655120450989032 2.5383413212154720 57.1795134447899258 Au
atom 1.4655120450989032 2.5383413212154720 50.0000000000000000 Au
atom 2.9310240901978064 3.3844550949539629 52.3931711482633062 Au
atom 36.6378011274725850 4.2305688686924530 54.7863422965266196 Au
atom 1.4655120450989032 2.5383413212154720 57.1795134447899258 Au
atom 2.9310240901978064 5.0766826424309439 50.0000000000000000 Au
atom 4.3965361352967101 5.9227964161694358 52.3931711482633062 Au
atom 38.1033131725714895 6.7689101899079258 54.7863422965266196 Au
atom 2.9310240901978064 5.0766826424309439 57.1795134447899258 Au
atom 2.9310240901978064 5.0766826424309439 50.0000000000000000 Au
atom 4.3965361352967101 5.9227964161694358 52.3931711482633062 Au
atom 38.1033131725714895 6.7689101899079258 54.7863422965266196 Au
atom 2.9310240901978064 5.0766826424309439 57.1795134447899258 Au
atom 2.9310240901978064 5.0766826424309439 50.0000000000000000 Au
atom 4.3965361352967101 5.9227964161694358 52.3931711482633062 Au
atom 38.1033131725714895 6.7689101899079258 54.7863422965266196 Au
atom 2.9310240901978064 5.0766826424309439 57.1795134447899258 Au
atom 2.9310240901978064 5.0766826424309439 50.0000000000000000 Au
atom 4.3965361352967101 5.9227964161694358 52.3931711482633062 Au
atom 38.1033131725714895 6.7689101899079258 54.7863422965266196 Au
atom 2.9310240901978064 5.0766826424309439 57.1795134447899258 Au
atom 4.3965361352967101 7.6150239636464168 50.0000000000000000 Au
atom 5.8620481803956137 8.4611377373849077 52.3931711482633062 Au
atom 39.5688252176703870 9.3072515111233987 54.7863422965266196 Au
atom 4.3965361352967101 7.6150239636464168 57.1795134447899258 Au
atom 4.3965361352967101 7.6150239636464168 50.0000000000000000 Au
atom 5.8620481803956137 8.4611377373849077 52.3931711482633062 Au
atom 39.5688252176703870 9.3072515111233987 54.7863422965266196 Au
atom 4.3965361352967101 7.6150239636464168 57.1795134447899258 Au
atom 4.3965361352967101 7.6150239636464168 50.0000000000000000 Au
atom 5.8620481803956137 8.4611377373849077 52.3931711482633062 Au
atom 39.5688252176703870 9.3072515111233987 54.7863422965266196 Au
atom 4.3965361352967101 7.6150239636464168 57.1795134447899258 Au
atom 4.3965361352967101 7.6150239636464168 50.0000000000000000 Au
atom 5.8620481803956137 8.4611377373849077 52.3931711482633062 Au
atom 39.5688252176703870 9.3072515111233987 54.7863422965266196 Au
atom 4.3965361352967101 7.6150239636464168 57.1795134447899258 Au
atom 5.8620481803956128 10.1533652848618878 50.0000000000000000 Au
atom 7.3275602254945165 10.9994790586003788 52.3931711482633062 Au
atom 41.0343372627692915 11.8455928323388715 54.7863422965266196 Au
atom 5.8620481803956128 10.1533652848618878 57.1795134447899258 Au
atom 5.8620481803956128 10.1533652848618878 50.0000000000000000 Au
atom 7.3275602254945165 10.9994790586003788 52.3931711482633062 Au
atom 41.0343372627692915 11.8455928323388715 54.7863422965266196 Au
atom 5.8620481803956128 10.1533652848618878 57.1795134447899258 Au
atom 5.8620481803956128 10.1533652848618878 50.0000000000000000 Au
atom 7.3275602254945165 10.9994790586003788 52.3931711482633062 Au
atom 41.0343372627692915 11.8455928323388715 54.7863422965266196 Au
atom 5.8620481803956128 10.1533652848618878 57.1795134447899258 Au
atom 5.8620481803956128 10.1533652848618878 50.0000000000000000 Au
atom 7.3275602254945165 10.9994790586003788 52.3931711482633062 Au
atom 41.0343372627692915 11.8455928323388715 54.7863422965266196 Au
atom 5.8620481803956128 10.1533652848618878 57.1795134447899258 Au
atom 7.3275602254945165 12.6917066060773625 50.0000000000000000 Au
atom 8.7930722705934201 13.5378203798158516 52.3931711482633062 Au
atom 42.4998493078681960 14.3839341535543426 54.7863422965266196 Au
atom 7.3275602254945165 12.6917066060773625 57.1795134447899258 Au
atom 7.3275602254945165 12.6917066060773625 50.0000000000000000 Au
atom 8.7930722705934201 13.5378203798158516 52.3931711482633062 Au
atom 42.4998493078681960 14.3839341535543426 54.7863422965266196 Au
atom 7.3275602254945165 12.6917066060773625 57.1795134447899258 Au
atom 7.3275602254945165 12.6917066060773625 50.0000000000000000 Au
atom 8.7930722705934201 13.5378203798158516 52.3931711482633062 Au
atom 42.4998493078681960 14.3839341535543426 54.7863422965266196 Au
atom 7.3275602254945165 12.6917066060773625 57.1795134447899258 Au
atom 7.3275602254945165 12.6917066060773625 50.0000000000000000 Au
atom 8.7930722705934201 13.5378203798158516 52.3931711482633062 Au
atom 42.4998493078681960 14.3839341535543426 54.7863422965266196 Au
atom 7.3275602254945165 12.6917066060773625 57.1795134447899258 Au
atom 8.7930722705934183 15.2300479272928317 50.0000000000000000 Au
atom 10.2585843156923229 16.0761617010313245 52.3931711482633062 Au
atom 43.9653613529671077 16.9222754747698154 54.7863422965266196 Au
atom 8.7930722705934183 15.2300479272928317 57.1795134447899258 Au
atom 8.7930722705934183 15.2300479272928317 50.0000000000000000 Au
atom 10.2585843156923229 16.0761617010313245 52.3931711482633062 Au
atom 43.9653613529671077 16.9222754747698154 54.7863422965266196 Au
atom 8.7930722705934183 15.2300479272928317 57.1795134447899258 Au
atom 8.7930722705934183 15.2300479272928317 50.0000000000000000 Au
atom 10.2585843156923229 16.0761617010313245 52.3931711482633062 Au
atom 43.9653613529671077 16.9222754747698154 54.7863422965266196 Au
atom 8.7930722705934183 15.2300479272928317 57.1795134447899258 Au
atom 8.7930722705934183 15.2300479272928317 50.0000000000000000 Au
atom 10.2585843156923229 16.0761617010313245 52.3931711482633062 Au
atom 43.9653613529671077 16.9222754747698154 54.7863422965266196 Au
atom 8.7930722705934183 15.2300479272928317 57.1795134447899258 Au
atom 10.2585843156923229 17.7683892485083028 50.0000000000000000 Au
atom 11.7240963607912256 18.6145030222467938 52.3931711482633062 Au
atom 45.4308733980660051 19.4606167959852847 54.7863422965266196 Au
atom 10.2585843156923229 17.7683892485083028 57.1795134447899258 Au
atom 10.2585843156923229 17.7683892485083028 50.0000000000000000 Au
atom 11.7240963607912256 18.6145030222467938 52.3931711482633062 Au
atom 45.4308733980660051 19.4606167959852847 54.7863422965266196 Au
atom 10.2585843156923229 17.7683892485083028 57.1795134447899258 Au
atom 10.2585843156923229 17.7683892485083028 50.0000000000000000 Au
atom 11.7240963607912256 18.6145030222467938 52.3931711482633062 Au
atom 45.4308733980660051 19.4606167959852847 54.7863422965266196 Au
atom 10.2585843156923229 17.7683892485083028 57.1795134447899258 Au
atom 10.2585843156923229 17.7683892485083028 50.0000000000000000 Au
atom 11.7240963607912256 18.6145030222467938 52.3931711482633062 Au
atom 45.4308733980660051 19.4606167959852847 54.7863422965266196 Au
atom 10.2585843156923229 17.7683892485083028 57.1795134447899258 Au
atom 11.7240963607912256 20.3067305697237757 50.0000000000000000 Au
atom 13.1896084058901266 21.1528443434622666 52.3931711482633062 Au
atom 46.8963854431649025 21.9989581172007576 54.7863422965266196 Au
atom 11.7240963607912256 20.3067305697237757 57.1795134447899258 Au
atom 11.7240963607912256 20.3067305697237757 50.0000000000000000 Au
atom 13.1896084058901266 21.1528443434622666 52.3931711482633062 Au
atom 46.8963854431649025 21.9989581172007576 54.7863422965266196 Au
atom 11.7240963607912256 20.3067305697237757 57.1795134447899258 Au
atom 11.7240963607912256 20.3067305697237757 50.0000000000000000 Au
atom 13.1896084058901266 21.1528443434622666 52.3931711482633062 Au
atom 46.8963854431649025 21.9989581172007576 54.7863422965266196 Au
atom 11.7240963607912256 20.3067305697237757 57.1795134447899258 Au
atom 11.7240963607912256 20.3067305697237757 50.0000000000000000 Au
atom 13.1896084058901266 21.1528443434622666 52.3931711482633062 Au
atom 46.8963854431649025 21.9989581172007576 54.7863422965266196 Au
atom 11.7240963607912256 20.3067305697237757 57.1795134447899258 Au
atom 13.1896084058901302 22.8450718909392521 50.0000000000000000 Au
atom 14.6551204509890329 23.6911856646777466 52.3931711482633062 Au
atom 48.3618974882638071 24.5372994384162375 54.7863422965266196 Au
atom 13.1896084058901302 22.8450718909392521 57.1795134447899258 Au
atom 13.1896084058901302 22.8450718909392521 50.0000000000000000 Au
atom 14.6551204509890329 23.6911856646777466 52.3931711482633062 Au
atom 48.3618974882638071 24.5372994384162375 54.7863422965266196 Au
atom 13.1896084058901302 22.8450718909392521 57.1795134447899258 Au
atom 13.1896084058901302 22.8450718909392521 50.0000000000000000 Au
atom 14.6551204509890329 23.6911856646777466 52.3931711482633062 Au
atom 48.3618974882638071 24.5372994384162375 54.7863422965266196 Au
atom 13.1896084058901302 22.8450718909392521 57.1795134447899258 Au
atom 13.1896084058901302 22.8450718909392521 50.0000000000000000 Au
atom 14.6551204509890329 23.6911856646777466 52.3931711482633062 Au
atom 48.3618974882638071 24.5372994384162375 54.7863422965266196 Au
atom 13.1896084058901302 22.8450718909392521 57.1795134447899258 Au
atom 14.6551204509890329 25.3834132121547249 50.0000000000000000 Au
atom 16.1206324960879357 26.2295269858932159 52.3931711482633062 Au
atom 49.8274095333627187 27.0756407596317032 54.7863422965266196 Au
atom 14.6551204509890329 25.3834132121547249 57.1795134447899258 Au
atom 14.6551204509890329 25.3834132121547249 50.0000000000000000 Au
atom 16.1206324960879357 26.2295269858932159 52.3931711482633062 Au
atom 49.8274095333627187 27.0756407596317032 54.7863422965266196 Au
atom 14.6551204509890329 25.3834132121547249 57.1795134447899258 Au
atom 14.6551204509890329 25.3834132121547249 50.0000000000000000 Au
atom 16.1206324960879357 26.2295269858932159 52.3931711482633062 Au
atom 49.8274095333627187 27.0756407596317032 54.7863422965266196 Au
atom 14.6551204509890329 25.3834132121547249 57.1795134447899258 Au
atom 14.6551204509890329 25.3834132121547249 50.0000000000000000 Au
atom 16.1206324960879357 26.2295269858932159 52.3931711482633062 Au
atom 49.8274095333627187 27.0756407596317032 54.7863422965266196 Au
atom 14.6551204509890329 25.3834132121547249 57.1795134447899258 Au
atom 16.1206324960879357 27.9217545333701942 50.0000000000000000 Au
atom 17.5861445411868402 28.7678683071086851 52.3931711482633062 Au
atom 51.2929215784616233 29.6139820808471761 54.7863422965266196 Au
atom 16.1206324960879357 27.9217545333701942 57.1795134447899258 Au
atom 16.1206324960879357 27.9217545333701942 50.0000000000000000 Au
atom 17.5861445411868402 28.7678683071086851 52.3931711482633062 Au
atom 51.2929215784616233 29.6139820808471761 54.7863422965266196 Au
atom 16.1206324960879357 27.9217545333701942 57.1795134447899258 Au
atom 16.1206324960879357 27.9217545333701942 50.0000000000000000 Au
atom 17.5861445411868402 28.7678683071086851 52.3931711482633062 Au
atom 51.2929215784616233 29.6139820808471761 54.7863422965266196 Au
atom 16.1206324960879357 27.9217545333701942 57.1795134447899258 Au
atom 16.1206324960879357 27.9217545333701942 50.0000000000000000 Au
atom 17.5861445411868402 28.7678683071086851 52.3931711482633062 Au
atom 51.2929215784616233 29.6139820808471761 54.7863422965266196 Au
atom 16.1206324960879357 27.9217545333701942 57.1795134447899258 Au
atom 2.9310240901978060 0.0000000000000000 50.0000000000000000 Au
atom 4.3965361352967101 0.8461137737384907 52.3931711482633062 Au
atom 2.9310240901978064 1.6922275474769815 54.7863422965266196 Au
atom 2.9310240901978060 0.0000000000000000 57.1795134447899258 Au
atom 2.9310240901978060 0.0000000000000000 50.0000000000000000 Au
atom 4.3965361352967101 0.8461137737384907 52.3931711482633062 Au
atom 2.9310240901978064 1.6922275474769815 54.7863422965266196 Au
atom 2.9310240901978060 0.0000000000000000 57.1795134447899258 Au
atom 2.9310240901978060 0.0000000000000000 50.0000000000000000 Au
atom 4.3965361352967101 0.8461137737384907 52.3931711482633062 Au
atom 2.9310240901978064 1.6922275474769815 54.7863422965266196 Au
atom 2.9310240901978060 0.0000000000000000 57.1795134447899258 Au
atom 2.9310240901978060 0.0000000000000000 50.0000000000000000 Au
atom 4.3965361352967101 0.8461137737384907 52.3931711482633062 Au
atom 2.9310240901978064 1.6922275474769815 54.7863422965266196 Au
atom 2.9310240901978060 0.0000000000000000 57.1795134447899258 Au
atom 4.3965361352967101 2.5383413212154720 50.0000000000000000 Au
atom 5.8620481803956128 3.3844550949539629 52.3931711482633062 Au
atom 4.3965361352967101 4.2305688686924530 54.7863422965266196 Au
atom 4.3965361352967101 2.5383413212154720 57.1795134447899258 Au
atom 4.3965361352967101 2.5383413212154720 50.0000000000000000 Au
atom 5.8620481803956128 3.3844550949539629 52.3931711482633062 Au
atom 4.3965361352967101 4.2305688686924530 54.7863422965266196 Au
atom 4.3965361352967101 2.5383413212154720 57.1795134447899258 Au
atom 4.3965361352967101 2.5383413212154720 50.0000000000000000 Au
atom 5.8620481803956128 3.3844550949539629 52.3931711482633062 Au
atom 4.3965361352967101 4.2305688686924530 54.7863422965266196 Au
atom 4.3965361352967101 2.5383413212154720 57.1795134447899258 Au
atom 4.3965361352967101 2.5383413212154720 50.0000000000000000 Au
atom 5.8620481803956128 3.3844550949539629 52.3931711482633062 Au
atom 4.3965361352967101 4.2305688686924530 54.7863422965266196 Au
atom 4.3965361352967101 2.5383413212154720 57.1795134447899258 Au
atom 5.8620481803956128 5.0766826424309439 50.0000000000000000 Au
atom 7.3275602254945165 5.9227964161694358 52.3931711482633062 Au
atom 5.8620481803956128 6.7689101899079258 54.7863422965266196 Au
atom 5.8620481803956128 5.0766826424309439 57.1795134447899258 Au
atom 5.8620481803956128 5.0766826424309439 50.0000000000000000 Au
atom 7.3275602254945165 5.9227964161694358 52.3931711482633062 Au
atom 5.8620481803956128 6.7689101899079258 54.7863422965266196 Au
atom 5.8620481803956128 5.0766826424309439 57.1795134447899258 Au
atom 5.8620481803956128 5.0766826424309439 50.0000000000000000 Au
atom 7.3275602254945165 5.9227964161694358 52.3931711482633062 Au
atom 5.8620481803956128 6.7689101899079258 54.7863422965266196 Au
atom 5.8620481803956128 5.0766826424309439 57.1795134447899258 Au
atom 5.8620481803956128 5.0766826424309439 50.0000000000000000 Au
atom 7.3275602254945165 5.9227964161694358 52.3931711482633062 Au
atom 5.8620481803956128 6.7689101899079258 54.7863422965266196 Au
atom 5.8620481803956128 5.0766826424309439 57.1795134447899258 Au
atom 7.3275602254945156 7.6150239636464168 50.0000000000000000 Au
atom 8.7930722705934201 8.4611377373849077 52.3931711482633062 Au
atom 7.3275602254945165 9.3072515111233987 54.7863422965266196 Au
atom 7.3275602254945156 7.6150239636464168 57.1795134447899258 Au
atom 7.3275602254945156 7.6150239636464168 50.0000000000000000 Au
atom 8.7930722705934201 8.4611377373849077 52.3931711482633062 Au
atom 7.3275602254945165 9.3072515111233987 54.7863422965266196 Au
atom 7.3275602254945156 7.6150239636464168 57.1795134447899258 Au
atom 7.3275602254945156 7.6150239636464168 50.0000000000000000 Au
atom 8.7930722705934201 8.4611377373849077 52.3931711482633062 Au
atom 7.3275602254945165 9.3072515111233987 54.7863422965266196 Au
atom 7.3275602254945156 7.6150239636464168 57.1795134447899258 Au
atom 7.3275602254945156 7.6150239636464168 50.0000000000000000 Au
atom 8.7930722705934201 8.4611377373849077 52.3931711482633062 Au
atom 7.3275602254945165 9.3072515111233987 54.7863422965266196 Au
atom 7.3275602254945156 7.6150239636464168 57.1795134447899258 Au
atom 8.7930722705934201 10.1533652848618878 50.0000000000000000 Au
atom 10.2585843156923229 10.9994790586003788 52.3931711482633062 Au
atom 8.7930722705934201 11.8455928323388715 54.7863422965266196 Au
atom 8.7930722705934201 10.1533652848618878 57.1795134447899258 Au
atom 8.7930722705934201 10.1533652848618878 50.0000000000000000 Au
atom 10.2585843156923229 10.9994790586003788 52.3931711482633062 Au
atom 8.7930722705934201 11.8455928323388715 54.7863422965266196 Au
atom 8.7930722705934201 10.1533652848618878 57.1795134447899258 Au
atom 8.7930722705934201 10.1533652848618878 50.0000000000000000 Au
atom 10.2585843156923229 10.9994790586003788 52.3931711482633062 Au
atom 8.7930722705934201 11.8455928323388715 54.7863422965266196 Au
atom 8.7930722705934201 10.1533652848618878 57.1795134447899258 Au
atom 8.7930722705934201 10.1533652848618878 50.0000000000000000 Au
atom 10.2585843156923229 10.9994790586003788 52.3931711482633062 Au
atom 8.7930722705934201 11.8455928323388715 54.7863422965266196 Au
atom 8.7930722705934201 10.1533652848618878 57.1795134447899258 Au
atom 10.2585843156923229 12.6917066060773625 50.0000000000000000 Au
atom 11.7240963607912256 13.5378203798158516 52.3931711482633062 Au
atom 10.2585843156923229 14.3839341535543426 54.7863422965266196 Au
atom 10.2585843156923229 12.6917066060773625 57.1795134447899258 Au
atom 10.2585843156923229 12.6917066060773625 50.0000000000000000 Au
atom 11.7240963607912256 13.5378203798158516 52.3931711482633062 Au
atom 10.2585843156923229 14.3839341535543426 54.7863422965266196 Au
atom 10.2585843156923229 12.6917066060773625 57.1795134447899258 Au
atom 10.2585843156923229 12.6917066060773625 50.0000000000000000 Au
atom 11.7240963607912256 13.5378203798158516 52.3931711482633062 Au
atom 10.2585843156923229 14.3839341535543426 54.7863422965266196 Au
atom 10.2585843156923229 12.6917066060773625 57.1795134447899258 Au
atom 10.2585843156923229 12.6917066060773625 50.0000000000000000 Au
atom 11.7240963607912256 13.5378203798158516 52.3931711482633062 Au
atom 10.2585843156923229 14.3839341535543426 54.7863422965266196 Au
atom 10.2585843156923229 12.6917066060773625 57.1795134447899258 Au
atom 11.7240963607912239 15.2300479272928317 50.0000000000000000 Au
atom 13.1896084058901284 16.0761617010313245 52.3931711482633062 Au
atom 11.7240963607912256 16.9222754747698154 54.7863422965266196 Au
atom 11.7240963607912239 15.2300479272928317 57.1795134447899258 Au
atom 11.7240963607912239 15.2300479272928317 50.0000000000000000 Au
atom 13.1896084058901284 16.0761617010313245 52.3931711482633062 Au
atom 11.7240963607912256 16.9222754747698154 54.7863422965266196 Au
atom 11.7240963607912239 15.2300479272928317 57.1795134447899258 Au
atom 11.7240963607912239 15.2300479272928317 50.0000000000000000 Au
atom 13.1896084058901284 16.0761617010313245 52.3931711482633062 Au
atom 11.7240963607912256 16.9222754747698154 54.7863422965266196 Au
atom 11.7240963607912239 15.2300479272928317 57.1795134447899258 Au
atom 11.7240963607912239 15.2300479272928317 50.0000000000000000 Au
atom 13.1896084058901284 16.0761617010313245 52.3931711482633062 Au
atom 11.7240963607912256 16.9222754747698154 54.7863422965266196 Au
atom 11.7240963607912239 15.2300479272928317 57.1795134447899258 Au
atom 13.1896084058901284 17.7683892485083028 50.0000000000000000 Au
atom 14.6551204509890312 18.6145030222467938 52.3931711482633062 Au
atom 13.1896084058901284 19.4606167959852847 54.7863422965266196 Au
atom 13.1896084058901284 17.7683892485083028 57.1795134447899258 Au
atom 13.1896084058901284 17.7683892485083028 50.0000000000000000 Au
atom 14.6551204509890312 18.6145030222467938 52.3931711482633062 Au
atom 13.1896084058901284 19.4606167959852847 54.7863422965266196 Au
atom 13.1896084058901284 17.7683892485083028 57.1795134447899258 Au
atom 13.1896084058901284 17.7683892485083028 50.0000000000000000 Au
atom 14.6551204509890312 18.6145030222467938 52.3931711482633062 Au
atom 13.1896084058901284 19.4606167959852847 54.7863422965266196 Au
atom 13.1896084058901284 17.7683892485083028 57.1795134447899258 Au
atom 13.1896084058901284 17.7683892485083028 50.0000000000000000 Au
atom 14.6551204509890312 18.6145030222467938 52.3931711482633062 Au
atom 13.1896084058901284 19.4606167959852847 54.7863422965266196 Au
atom 13.1896084058901284 17.7683892485083028 57.1795134447899258 Au
atom 14.6551204509890329 20.3067305697237757 50.0000000000000000 Au
atom 16.1206324960879357 21.1528443434622666 52.3931711482633062 Au
atom 14.6551204509890329 21.9989581172007576 54.7863422965266196 Au
atom 14.6551204509890329 20.3067305697237757 57.1795134447899258 Au
atom 14.6551204509890329 20.3067305697237757 50.0000000000000000 Au
atom 16.1206324960879357 21.1528443434622666 52.3931711482633062 Au
atom 14.6551204509890329 21.9989581172007576 54.7863422965266196 Au
atom 14.6551204509890329 20.3067305697237757 57.1795134447899258 Au
atom 14.6551204509890329 20.3067305697237757 50.0000000000000000 Au
atom 16.1206324960879357 21.1528443434622666 52.3931711482633062 Au
atom 14.6551204509890329 21.9989581172007576 54.7863422965266196 Au
atom 14.6551204509890329 20.3067305697237757 57.1795134447899258 Au
atom 14.6551204509890329 20.3067305697237757 50.0000000000000000 Au
atom 16.1206324960879357 21.1528443434622666 52.3931711482633062 Au
atom 14.6551204509890329 21.9989581172007576 54.7863422965266196 Au
atom 14.6551204509890329 20.3067305697237757 57.1795134447899258 Au
atom 16.1206324960879357 22.8450718909392521 50.0000000000000000 Au
atom 17.5861445411868402 23.6911856646777466 52.3931711482633062 Au
atom 16.1206324960879357 24.5372994384162375 54.7863422965266196 Au
atom 16.1206324960879357 22.8450718909392521 57.1795134447899258 Au
atom 16.1206324960879357 22.8450718909392521 50.0000000000000000 Au
atom 17.5861445411868402 23.6911856646777466 52.3931711482633062 Au
atom 16.1206324960879357 24.5372994384162375 54.7863422965266196 Au
atom 16.1206324960879357 22.8450718909392521 57.1795134447899258 Au
atom 16.1206324960879357 22.8450718909392521 50.0000000000000000 Au
atom 17.5861445411868402 23.6911856646777466 52.3931711482633062 Au
atom 16.1206324960879357 24.5372994384162375 54.7863422965266196 Au
atom 16.1206324960879357 22.8450718909392521 57.1795134447899258 Au
atom 16.1206324960879357 22.8450718909392521 50.0000000000000000 Au
atom 17.5861445411868402 23.6911856646777466 52.3931711482633062 Au
atom 16.1206324960879357 24.5372994384162375 54.7863422965266196 Au
atom 16.1206324960879357 22.8450718909392521 57.1795134447899258 Au
atom 17.5861445411868402 25.3834132121547249 50.0000000000000000 Au
atom 19.0516565862857448 26.2295269858932159 52.3931711482633062 Au
atom 17.5861445411868402 27.0756407596317032 54.7863422965266196 Au
atom 17.5861445411868402 25.3834132121547249 57.1795134447899258 Au
atom 17.5861445411868402 25.3834132121547249 50.0000000000000000 Au
atom 19.0516565862857448 26.2295269858932159 52.3931711482633062 Au
atom 17.5861445411868402 27.0756407596317032 54.7863422965266196 Au
atom 17.5861445411868402 25.3834132121547249 57.1795134447899258 Au
atom 17.5861445411868402 25.3834132121547249 50.0000000000000000 Au
atom 19.0516565862857448 26.2295269858932159 52.3931711482633062 Au
atom 17.5861445411868402 27.0756407596317032 54.7863422965266196 Au
atom 17.5861445411868402 25.3834132121547249 57.1795134447899258 Au
atom 17.5861445411868402 25.3834132121547249 50.0000000000000000 Au
atom 19.0516565862857448 26.2295269858932159 52.3931711482633062 Au
atom 17.5861445411868402 27.0756407596317032 54.7863422965266196 Au
atom 17.5861445411868402 25.3834132121547249 57.1795134447899258 Au
atom 19.0516565862857412 27.9217545333701942 50.0000000000000000 Au
atom 20.5171686313846457 28.7678683071086851 52.3931711482633062 Au
atom 19.0516565862857412 29.6139820808471761 54.7863422965266196 Au
atom 19.0516565862857412 27.9217545333701942 57.1795134447899258 Au
atom 19.0516565862857412 27.9217545333701942 50.0000000000000000 Au
atom 20.5171686313846457 28.7678683071086851 52.3931711482633062 Au
atom 19.0516565862857412 29.6139820808471761 54.7863422965266196 Au
atom 19.0516565862857412 27.9217545333701942 57.1795134447899258 Au
atom 19.0516565862857412 27.9217545333701942 50.0000000000000000 Au
atom 20.5171686313846457 28.7678683071086851 52.3931711482633062 Au
atom 19.0516565862857412 29.6139820808471761 54.7863422965266196 Au
atom 19.0516565862857412 27.9217545333701942 57.1795134447899258 Au
atom 19.0516565862857412 27.9217545333701942 50.0000000000000000 Au
atom 20.5171686313846457 28.7678683071086851 52.3931711482633062 Au
atom 19.0516565862857412 29.6139820808471761 54.7863422965266196 Au
atom 19.0516565862857412 27.9217545333701942 57.1795134447899258 Au
atom 5.8620481803956119 0.0000000000000000 50.0000000000000000 Au
atom 7.3275602254945156 0.8461137737384907 52.3931711482633062 Au
atom 5.8620481803956119 1.6922275474769815 54.7863422965266196 Au
atom 5.8620481803956119 0.0000000000000000 57.1795134447899258 Au
atom 5.8620481803956119 0.0000000000000000 50.0000000000000000 Au
atom 7.3275602254945156 0.8461137737384907 52.3931711482633062 Au
atom 5.8620481803956119 1.6922275474769815 54.7863422965266196 Au
atom 5.8620481803956119 0.0000000000000000 57.1795134447899258 Au
atom 5.8620481803956119 0.0000000000000000 50.0000000000000000 Au
atom 7.3275602254945156 0.8461137737384907 52.3931711482633062 Au
atom 5.8620481803956119 1.6922275474769815 54.7863422965266196 Au
atom 5.8620481803956119 0.0000000000000000 57.1795134447899258 Au
atom 5.8620481803956119 0.0000000000000000 50.0000000000000000 Au
atom 7.3275602254945156 0.8461137737384907 52.3931711482633062 Au
atom 5.8620481803956119 1.6922275474769815 54.7863422965266196 Au
atom 5.8620481803956119 0.0000000000000000 57.1795134447899258 Au
atom 7.3275602254945156 2.5383413212154720 50.0000000000000000 Au
atom 8.7930722705934183 3.3844550949539629 52.3931711482633062 Au
atom 7.3275602254945156 4.2305688686924530 54.7863422965266196 Au
atom 7.3275602254945156 2.5383413212154720 57.1795134447899258 Au
atom 7.3275602254945156 2.5383413212154720 50.0000000000000000 Au
atom 8.7930722705934183 3.3844550949539629 52.3931711482633062 Au
atom 7.3275602254945156 4.2305688686924530 54.7863422965266196 Au
atom 7.3275602254945156 2.5383413212154720 57.1795134447899258 Au
atom 7.3275602254945156 2.5383413212154720 50.0000000000000000 Au
atom 8.7930722705934183 3.3844550949539629 52.3931711482633062 Au
atom 7.3275602254945156 4.2305688686924530 54.7863422965266196 Au
atom 7.3275602254945156 2.5383413212154720 57.1795134447899258 Au
atom 7.3275602254945156 2.5383413212154720 50.0000000000000000 Au
atom 8.7930722705934183 3.3844550949539629 52.3931711482633062 Au
atom 7.3275602254945156 4.2305688686924530 54.7863422965266196 Au
atom 7.3275602254945156 2.5383413212154720 57.1795134447899258 Au
atom 8.7930722705934201 5.0766826424309439 50.0000000000000000 Au
atom 10.2585843156923229 5.9227964161694358 52.3931711482633062 Au
atom 8.7930722705934183 6.7689101899079258 54.7863422965266196 Au
atom 8.7930722705934201 5.0766826424309439 57.1795134447899258 Au
atom 8.7930722705934201 5.0766826424309439 50.0000000000000000 Au
atom 10.2585843156923229 5.9227964161694358 52.3931711482633062 Au
atom 8.7930722705934183 6.7689101899079258 54.7863422965266196 Au
atom 8.7930722705934201 5.0766826424309439 57.1795134447899258 Au
atom 8.7930722705934201 5.0766826424309439 50.0000000000000000 Au
atom 10.2585843156923229 5.9227964161694358 52.3931711482633062 Au
atom 8.7930722705934183 6.7689101899079258 54.7863422965266196 Au
atom 8.7930722705934201 5.0766826424309439 57.1795134447899258 Au
atom 8.7930722705934201 5.0766826424309439 50.0000000000000000 Au
atom 10.2585843156923229 5.9227964161694358 52.3931711482633062 Au
atom 8.7930722705934183 6.7689101899079258 54.7863422965266196 Au
atom 8.7930722705934201 5.0766826424309439 57.1795134447899258 Au
atom 10.2585843156923211 7.6150239636464168 50.0000000000000000 Au
atom 11.7240963607912256 8.4611377373849077 52.3931711482633062 Au
atom 10.2585843156923211 9.3072515111233987 54.7863422965266196 Au
atom 10.2585843156923211 7.6150239636464168 57.1795134447899258 Au
atom 10.2585843156923211 7.6150239636464168 50.0000000000000000 Au
atom 11.7240963607912256 8.4611377373849077 52.3931711482633062 Au
atom 10.2585843156923211 9.3072515111233987 54.7863422965266196 Au
atom 10.2585843156923211 7.6150239636464168 57.1795134447899258 Au