# 
# This is the geometry file that corresponds to the current relaxation step.
# If you do not want this file to be written, set the "write_restart_geometry" flag to .false.
#  aims_uuid : 0B660C33-7F5D-497F-AF05-4AFC79D0233C                                
# 
  set_vacuum_level        49.999899
lattice_vector      3.13091130     -0.00026043     -0.00000000
lattice_vector     -1.56565592      2.71127576     -0.00000000
lattice_vector      0.00000000     -0.00000000     99.99982143
atom      -0.78270706     -0.45177848     -0.00000004 Mo
atom       0.78270076      0.45178548      1.56222018 S
atom       0.78270075      0.45178548     -1.56222012 S
# 
# What follows is the current estimated Hessian matrix constructed by the BFGS algorithm.
# This is NOT the true Hessian matrix of the system.
# If you do not want this information here, switch it off using the "hessian_to_restart_geometry" keyword.
# 
trust_radius             0.2000000030
hessian_file
