lattice_vector      3.14284478     -0.00026142     -0.00000000
lattice_vector     -1.57162894      2.72161934      0.00000000
lattice_vector      0.00000000      0.00000000     99.99979695
atom      -0.78571559     -0.45348803     -0.00000004 Mo
atom       0.78569619      0.45350206      1.55441138 S
atom       0.78569618      0.45350206     -1.55441132 S
