#=======================================================
# FHI-aims file: geometry_supercell.in
# Created using the Atomic Simulation Environment (ASE)
# Fri Jan 21 11:47:34 2022
#=======================================================
lattice_vector 35.1965154092252703 0.0000000000000000 0.0000000000000000 
lattice_vector 17.5982577046126352 30.4810764690795253 0.0000000000000000 
lattice_vector 0.0000000000000000 0.0000000000000000 107.1844586230506167 
atom 0.0000000000000000 0.0000000000000000 50.0000000000000000 Au
atom 1.4665214753843863 0.8466965685855422 52.3948195410168722 Au
atom 35.1965154092252774 1.6933931371710844 54.7896390820337444 Au
atom 0.0000000000000000 0.0000000000000000 57.1844586230506167 Au
atom 0.0000000000000000 0.0000000000000000 50.0000000000000000 Au
atom 1.4665214753843863 0.8466965685855422 52.3948195410168722 Au
atom 35.1965154092252774 1.6933931371710844 54.7896390820337444 Au
atom 0.0000000000000000 0.0000000000000000 57.1844586230506167 Au
atom 0.0000000000000000 0.0000000000000000 50.0000000000000000 Au
atom 1.4665214753843863 0.8466965685855422 52.3948195410168722 Au
atom 35.1965154092252774 1.6933931371710844 54.7896390820337444 Au
atom 0.0000000000000000 0.0000000000000000 57.1844586230506167 Au
atom 0.0000000000000000 0.0000000000000000 50.0000000000000000 Au
atom 1.4665214753843863 0.8466965685855422 52.3948195410168722 Au
atom 35.1965154092252774 1.6933931371710844 54.7896390820337444 Au
atom 0.0000000000000000 0.0000000000000000 57.1844586230506167 Au
atom 1.4665214753843863 2.5400897057566265 50.0000000000000000 Au
atom 2.9330429507687725 3.3867862743421688 52.3948195410168722 Au
atom 36.6630368846096530 4.2334828429277120 54.7896390820337444 Au
atom 1.4665214753843863 2.5400897057566265 57.1844586230506167 Au
atom 1.4665214753843863 2.5400897057566265 50.0000000000000000 Au
atom 2.9330429507687725 3.3867862743421688 52.3948195410168722 Au
atom 36.6630368846096530 4.2334828429277120 54.7896390820337444 Au
atom 1.4665214753843863 2.5400897057566265 57.1844586230506167 Au
atom 1.4665214753843863 2.5400897057566265 50.0000000000000000 Au
atom 2.9330429507687725 3.3867862743421688 52.3948195410168722 Au
atom 36.6630368846096530 4.2334828429277120 54.7896390820337444 Au
atom 1.4665214753843863 2.5400897057566265 57.1844586230506167 Au
atom 1.4665214753843863 2.5400897057566265 50.0000000000000000 Au
atom 2.9330429507687725 3.3867862743421688 52.3948195410168722 Au
atom 36.6630368846096530 4.2334828429277120 54.7896390820337444 Au
atom 1.4665214753843863 2.5400897057566265 57.1844586230506167 Au
atom 2.9330429507687725 5.0801794115132530 50.0000000000000000 Au
atom 4.3995644261531588 5.9268759800987949 52.3948195410168722 Au
atom 38.1295583599940500 6.7735725486843377 54.7896390820337444 Au
atom 2.9330429507687725 5.0801794115132530 57.1844586230506167 Au
atom 2.9330429507687725 5.0801794115132530 50.0000000000000000 Au
atom 4.3995644261531588 5.9268759800987949 52.3948195410168722 Au
atom 38.1295583599940500 6.7735725486843377 54.7896390820337444 Au
atom 2.9330429507687725 5.0801794115132530 57.1844586230506167 Au
atom 2.9330429507687725 5.0801794115132530 50.0000000000000000 Au
atom 4.3995644261531588 5.9268759800987949 52.3948195410168722 Au
atom 38.1295583599940500 6.7735725486843377 54.7896390820337444 Au
atom 2.9330429507687725 5.0801794115132530 57.1844586230506167 Au
atom 2.9330429507687725 5.0801794115132530 50.0000000000000000 Au
atom 4.3995644261531588 5.9268759800987949 52.3948195410168722 Au
atom 38.1295583599940500 6.7735725486843377 54.7896390820337444 Au
atom 2.9330429507687725 5.0801794115132530 57.1844586230506167 Au
atom 4.3995644261531588 7.6202691172698795 50.0000000000000000 Au
atom 5.8660859015375451 8.4669656858554241 52.3948195410168722 Au
atom 39.5960798353784327 9.3136622544409651 54.7896390820337444 Au
atom 4.3995644261531588 7.6202691172698795 57.1844586230506167 Au
atom 4.3995644261531588 7.6202691172698795 50.0000000000000000 Au
atom 5.8660859015375451 8.4669656858554241 52.3948195410168722 Au
atom 39.5960798353784327 9.3136622544409651 54.7896390820337444 Au
atom 4.3995644261531588 7.6202691172698795 57.1844586230506167 Au
atom 4.3995644261531588 7.6202691172698795 50.0000000000000000 Au
atom 5.8660859015375451 8.4669656858554241 52.3948195410168722 Au
atom 39.5960798353784327 9.3136622544409651 54.7896390820337444 Au
atom 4.3995644261531588 7.6202691172698795 57.1844586230506167 Au
atom 4.3995644261531588 7.6202691172698795 50.0000000000000000 Au
atom 5.8660859015375451 8.4669656858554241 52.3948195410168722 Au
atom 39.5960798353784327 9.3136622544409651 54.7896390820337444 Au
atom 4.3995644261531588 7.6202691172698795 57.1844586230506167 Au
atom 5.8660859015375451 10.1603588230265061 50.0000000000000000 Au
atom 7.3326073769219313 11.0070553916120488 52.3948195410168722 Au
atom 41.0626013107628154 11.8537519601975898 54.7896390820337444 Au
atom 5.8660859015375451 10.1603588230265061 57.1844586230506167 Au
atom 5.8660859015375451 10.1603588230265061 50.0000000000000000 Au
atom 7.3326073769219313 11.0070553916120488 52.3948195410168722 Au
atom 41.0626013107628154 11.8537519601975898 54.7896390820337444 Au
atom 5.8660859015375451 10.1603588230265061 57.1844586230506167 Au
atom 5.8660859015375451 10.1603588230265061 50.0000000000000000 Au
atom 7.3326073769219313 11.0070553916120488 52.3948195410168722 Au
atom 41.0626013107628154 11.8537519601975898 54.7896390820337444 Au
atom 5.8660859015375451 10.1603588230265061 57.1844586230506167 Au
atom 5.8660859015375451 10.1603588230265061 50.0000000000000000 Au
atom 7.3326073769219313 11.0070553916120488 52.3948195410168722 Au
atom 41.0626013107628154 11.8537519601975898 54.7896390820337444 Au
atom 5.8660859015375451 10.1603588230265061 57.1844586230506167 Au
atom 7.3326073769219304 12.7004485287831326 50.0000000000000000 Au
atom 8.7991288523063176 13.5471450973686753 52.3948195410168722 Au
atom 42.5291227861472052 14.3938416659542181 54.7896390820337444 Au
atom 7.3326073769219304 12.7004485287831326 57.1844586230506167 Au
atom 7.3326073769219304 12.7004485287831326 50.0000000000000000 Au
atom 8.7991288523063176 13.5471450973686753 52.3948195410168722 Au
atom 42.5291227861472052 14.3938416659542181 54.7896390820337444 Au
atom 7.3326073769219304 12.7004485287831326 57.1844586230506167 Au
atom 7.3326073769219304 12.7004485287831326 50.0000000000000000 Au
atom 8.7991288523063176 13.5471450973686753 52.3948195410168722 Au
atom 42.5291227861472052 14.3938416659542181 54.7896390820337444 Au
atom 7.3326073769219304 12.7004485287831326 57.1844586230506167 Au
atom 7.3326073769219304 12.7004485287831326 50.0000000000000000 Au
atom 8.7991288523063176 13.5471450973686753 52.3948195410168722 Au
atom 42.5291227861472052 14.3938416659542181 54.7896390820337444 Au
atom 7.3326073769219304 12.7004485287831326 57.1844586230506167 Au
atom 8.7991288523063176 15.2405382345397609 50.0000000000000000 Au
atom 10.2656503276907038 16.0872348031253054 52.3948195410168722 Au
atom 43.9956442615315879 16.9339313717108482 54.7896390820337444 Au
atom 8.7991288523063176 15.2405382345397609 57.1844586230506167 Au
atom 8.7991288523063176 15.2405382345397609 50.0000000000000000 Au
atom 10.2656503276907038 16.0872348031253054 52.3948195410168722 Au
atom 43.9956442615315879 16.9339313717108482 54.7896390820337444 Au
atom 8.7991288523063176 15.2405382345397609 57.1844586230506167 Au
atom 8.7991288523063176 15.2405382345397609 50.0000000000000000 Au
atom 10.2656503276907038 16.0872348031253054 52.3948195410168722 Au
atom 43.9956442615315879 16.9339313717108482 54.7896390820337444 Au
atom 8.7991288523063176 15.2405382345397609 57.1844586230506167 Au
atom 8.7991288523063176 15.2405382345397609 50.0000000000000000 Au
atom 10.2656503276907038 16.0872348031253054 52.3948195410168722 Au
atom 43.9956442615315879 16.9339313717108482 54.7896390820337444 Au
atom 8.7991288523063176 15.2405382345397609 57.1844586230506167 Au
atom 10.2656503276907021 17.7806279402963838 50.0000000000000000 Au
atom 11.7321718030750883 18.6273245088819266 52.3948195410168722 Au
atom 45.4621657369159777 19.4740210774674694 54.7896390820337444 Au
atom 10.2656503276907021 17.7806279402963838 57.1844586230506167 Au
atom 10.2656503276907021 17.7806279402963838 50.0000000000000000 Au
atom 11.7321718030750883 18.6273245088819266 52.3948195410168722 Au
atom 45.4621657369159777 19.4740210774674694 54.7896390820337444 Au
atom 10.2656503276907021 17.7806279402963838 57.1844586230506167 Au
atom 10.2656503276907021 17.7806279402963838 50.0000000000000000 Au
atom 11.7321718030750883 18.6273245088819266 52.3948195410168722 Au
atom 45.4621657369159777 19.4740210774674694 54.7896390820337444 Au
atom 10.2656503276907021 17.7806279402963838 57.1844586230506167 Au
atom 10.2656503276907021 17.7806279402963838 50.0000000000000000 Au
atom 11.7321718030750883 18.6273245088819266 52.3948195410168722 Au
atom 45.4621657369159777 19.4740210774674694 54.7896390820337444 Au
atom 10.2656503276907021 17.7806279402963838 57.1844586230506167 Au
atom 11.7321718030750901 20.3207176460530121 50.0000000000000000 Au
atom 13.1986932784594764 21.1674142146385549 52.3948195410168722 Au
atom 46.9286872123003604 22.0141107832240976 54.7896390820337444 Au
atom 11.7321718030750901 20.3207176460530121 57.1844586230506167 Au
atom 11.7321718030750901 20.3207176460530121 50.0000000000000000 Au
atom 13.1986932784594764 21.1674142146385549 52.3948195410168722 Au
atom 46.9286872123003604 22.0141107832240976 54.7896390820337444 Au
atom 11.7321718030750901 20.3207176460530121 57.1844586230506167 Au
atom 11.7321718030750901 20.3207176460530121 50.0000000000000000 Au
atom 13.1986932784594764 21.1674142146385549 52.3948195410168722 Au
atom 46.9286872123003604 22.0141107832240976 54.7896390820337444 Au
atom 11.7321718030750901 20.3207176460530121 57.1844586230506167 Au
atom 11.7321718030750901 20.3207176460530121 50.0000000000000000 Au
atom 13.1986932784594764 21.1674142146385549 52.3948195410168722 Au
atom 46.9286872123003604 22.0141107832240976 54.7896390820337444 Au
atom 11.7321718030750901 20.3207176460530121 57.1844586230506167 Au
atom 13.1986932784594764 22.8608073518096404 50.0000000000000000 Au
atom 14.6652147538438626 23.7075039203951832 52.3948195410168722 Au
atom 48.3952086876847503 24.5542004889807259 54.7896390820337444 Au
atom 13.1986932784594764 22.8608073518096404 57.1844586230506167 Au
atom 13.1986932784594764 22.8608073518096404 50.0000000000000000 Au
atom 14.6652147538438626 23.7075039203951832 52.3948195410168722 Au
atom 48.3952086876847503 24.5542004889807259 54.7896390820337444 Au
atom 13.1986932784594764 22.8608073518096404 57.1844586230506167 Au
atom 13.1986932784594764 22.8608073518096404 50.0000000000000000 Au
atom 14.6652147538438626 23.7075039203951832 52.3948195410168722 Au
atom 48.3952086876847503 24.5542004889807259 54.7896390820337444 Au
atom 13.1986932784594764 22.8608073518096404 57.1844586230506167 Au
atom 13.1986932784594764 22.8608073518096404 50.0000000000000000 Au
atom 14.6652147538438626 23.7075039203951832 52.3948195410168722 Au
atom 48.3952086876847503 24.5542004889807259 54.7896390820337444 Au
atom 13.1986932784594764 22.8608073518096404 57.1844586230506167 Au
atom 14.6652147538438609 25.4008970575662651 50.0000000000000000 Au
atom 16.1317362292282453 26.2475936261518079 52.3948195410168722 Au
atom 49.8617301630691330 27.0942901947373507 54.7896390820337444 Au
atom 14.6652147538438609 25.4008970575662651 57.1844586230506167 Au
atom 14.6652147538438609 25.4008970575662651 50.0000000000000000 Au
atom 16.1317362292282453 26.2475936261518079 52.3948195410168722 Au
atom 49.8617301630691330 27.0942901947373507 54.7896390820337444 Au
atom 14.6652147538438609 25.4008970575662651 57.1844586230506167 Au
atom 14.6652147538438609 25.4008970575662651 50.0000000000000000 Au
atom 16.1317362292282453 26.2475936261518079 52.3948195410168722 Au
atom 49.8617301630691330 27.0942901947373507 54.7896390820337444 Au
atom 14.6652147538438609 25.4008970575662651 57.1844586230506167 Au
atom 14.6652147538438609 25.4008970575662651 50.0000000000000000 Au
atom 16.1317362292282453 26.2475936261518079 52.3948195410168722 Au
atom 49.8617301630691330 27.0942901947373507 54.7896390820337444 Au
atom 14.6652147538438609 25.4008970575662651 57.1844586230506167 Au
atom 16.1317362292282489 27.9409867633228934 50.0000000000000000 Au
atom 17.5982577046126352 28.7876833319084362 52.3948195410168722 Au
atom 51.3282516384535228 29.6343799004939790 54.7896390820337444 Au
atom 16.1317362292282489 27.9409867633228934 57.1844586230506167 Au
atom 16.1317362292282489 27.9409867633228934 50.0000000000000000 Au
atom 17.5982577046126352 28.7876833319084362 52.3948195410168722 Au
atom 51.3282516384535228 29.6343799004939790 54.7896390820337444 Au
atom 16.1317362292282489 27.9409867633228934 57.1844586230506167 Au
atom 16.1317362292282489 27.9409867633228934 50.0000000000000000 Au
atom 17.5982577046126352 28.7876833319084362 52.3948195410168722 Au
atom 51.3282516384535228 29.6343799004939790 54.7896390820337444 Au
atom 16.1317362292282489 27.9409867633228934 57.1844586230506167 Au
atom 16.1317362292282489 27.9409867633228934 50.0000000000000000 Au
atom 17.5982577046126352 28.7876833319084362 52.3948195410168722 Au
atom 51.3282516384535228 29.6343799004939790 54.7896390820337444 Au
atom 16.1317362292282489 27.9409867633228934 57.1844586230506167 Au
atom 2.9330429507687725 0.0000000000000000 50.0000000000000000 Au
atom 4.3995644261531588 0.8466965685855422 52.3948195410168722 Au
atom 2.9330429507687725 1.6933931371710844 54.7896390820337444 Au
atom 2.9330429507687725 0.0000000000000000 57.1844586230506167 Au
atom 2.9330429507687725 0.0000000000000000 50.0000000000000000 Au
atom 4.3995644261531588 0.8466965685855422 52.3948195410168722 Au
atom 2.9330429507687725 1.6933931371710844 54.7896390820337444 Au
atom 2.9330429507687725 0.0000000000000000 57.1844586230506167 Au
atom 2.9330429507687725 0.0000000000000000 50.0000000000000000 Au
atom 4.3995644261531588 0.8466965685855422 52.3948195410168722 Au
atom 2.9330429507687725 1.6933931371710844 54.7896390820337444 Au
atom 2.9330429507687725 0.0000000000000000 57.1844586230506167 Au
atom 2.9330429507687725 0.0000000000000000 50.0000000000000000 Au
atom 4.3995644261531588 0.8466965685855422 52.3948195410168722 Au
atom 2.9330429507687725 1.6933931371710844 54.7896390820337444 Au
atom 2.9330429507687725 0.0000000000000000 57.1844586230506167 Au
atom 4.3995644261531588 2.5400897057566265 50.0000000000000000 Au
atom 5.8660859015375451 3.3867862743421688 52.3948195410168722 Au
atom 4.3995644261531588 4.2334828429277120 54.7896390820337444 Au
atom 4.3995644261531588 2.5400897057566265 57.1844586230506167 Au
atom 4.3995644261531588 2.5400897057566265 50.0000000000000000 Au
atom 5.8660859015375451 3.3867862743421688 52.3948195410168722 Au
atom 4.3995644261531588 4.2334828429277120 54.7896390820337444 Au
atom 4.3995644261531588 2.5400897057566265 57.1844586230506167 Au
atom 4.3995644261531588 2.5400897057566265 50.0000000000000000 Au
atom 5.8660859015375451 3.3867862743421688 52.3948195410168722 Au
atom 4.3995644261531588 4.2334828429277120 54.7896390820337444 Au
atom 4.3995644261531588 2.5400897057566265 57.1844586230506167 Au
atom 4.3995644261531588 2.5400897057566265 50.0000000000000000 Au
atom 5.8660859015375451 3.3867862743421688 52.3948195410168722 Au
atom 4.3995644261531588 4.2334828429277120 54.7896390820337444 Au
atom 4.3995644261531588 2.5400897057566265 57.1844586230506167 Au
atom 5.8660859015375451 5.0801794115132530 50.0000000000000000 Au
atom 7.3326073769219313 5.9268759800987949 52.3948195410168722 Au
atom 5.8660859015375451 6.7735725486843377 54.7896390820337444 Au
atom 5.8660859015375451 5.0801794115132530 57.1844586230506167 Au
atom 5.8660859015375451 5.0801794115132530 50.0000000000000000 Au
atom 7.3326073769219313 5.9268759800987949 52.3948195410168722 Au
atom 5.8660859015375451 6.7735725486843377 54.7896390820337444 Au
atom 5.8660859015375451 5.0801794115132530 57.1844586230506167 Au
atom 5.8660859015375451 5.0801794115132530 50.0000000000000000 Au
atom 7.3326073769219313 5.9268759800987949 52.3948195410168722 Au
atom 5.8660859015375451 6.7735725486843377 54.7896390820337444 Au
atom 5.8660859015375451 5.0801794115132530 57.1844586230506167 Au
atom 5.8660859015375451 5.0801794115132530 50.0000000000000000 Au
atom 7.3326073769219313 5.9268759800987949 52.3948195410168722 Au
atom 5.8660859015375451 6.7735725486843377 54.7896390820337444 Au
atom 5.8660859015375451 5.0801794115132530 57.1844586230506167 Au
atom 7.3326073769219313 7.6202691172698795 50.0000000000000000 Au
atom 8.7991288523063176 8.4669656858554241 52.3948195410168722 Au
atom 7.3326073769219313 9.3136622544409651 54.7896390820337444 Au
atom 7.3326073769219313 7.6202691172698795 57.1844586230506167 Au
atom 7.3326073769219313 7.6202691172698795 50.0000000000000000 Au
atom 8.7991288523063176 8.4669656858554241 52.3948195410168722 Au
atom 7.3326073769219313 9.3136622544409651 54.7896390820337444 Au
atom 7.3326073769219313 7.6202691172698795 57.1844586230506167 Au
atom 7.3326073769219313 7.6202691172698795 50.0000000000000000 Au
atom 8.7991288523063176 8.4669656858554241 52.3948195410168722 Au
atom 7.3326073769219313 9.3136622544409651 54.7896390820337444 Au
atom 7.3326073769219313 7.6202691172698795 57.1844586230506167 Au
atom 7.3326073769219313 7.6202691172698795 50.0000000000000000 Au
atom 8.7991288523063176 8.4669656858554241 52.3948195410168722 Au
atom 7.3326073769219313 9.3136622544409651 54.7896390820337444 Au
atom 7.3326073769219313 7.6202691172698795 57.1844586230506167 Au
atom 8.7991288523063176 10.1603588230265061 50.0000000000000000 Au
atom 10.2656503276907038 11.0070553916120488 52.3948195410168722 Au
atom 8.7991288523063176 11.8537519601975898 54.7896390820337444 Au
atom 8.7991288523063176 10.1603588230265061 57.1844586230506167 Au
atom 8.7991288523063176 10.1603588230265061 50.0000000000000000 Au
atom 10.2656503276907038 11.0070553916120488 52.3948195410168722 Au
atom 8.7991288523063176 11.8537519601975898 54.7896390820337444 Au
atom 8.7991288523063176 10.1603588230265061 57.1844586230506167 Au
atom 8.7991288523063176 10.1603588230265061 50.0000000000000000 Au
atom 10.2656503276907038 11.0070553916120488 52.3948195410168722 Au
atom 8.7991288523063176 11.8537519601975898 54.7896390820337444 Au
atom 8.7991288523063176 10.1603588230265061 57.1844586230506167 Au
atom 8.7991288523063176 10.1603588230265061 50.0000000000000000 Au
atom 10.2656503276907038 11.0070553916120488 52.3948195410168722 Au
atom 8.7991288523063176 11.8537519601975898 54.7896390820337444 Au
atom 8.7991288523063176 10.1603588230265061 57.1844586230506167 Au
atom 10.2656503276907038 12.7004485287831326 50.0000000000000000 Au
atom 11.7321718030750901 13.5471450973686753 52.3948195410168722 Au
atom 10.2656503276907038 14.3938416659542181 54.7896390820337444 Au
atom 10.2656503276907038 12.7004485287831326 57.1844586230506167 Au
atom 10.2656503276907038 12.7004485287831326 50.0000000000000000 Au
atom 11.7321718030750901 13.5471450973686753 52.3948195410168722 Au
atom 10.2656503276907038 14.3938416659542181 54.7896390820337444 Au
atom 10.2656503276907038 12.7004485287831326 57.1844586230506167 Au
atom 10.2656503276907038 12.7004485287831326 50.0000000000000000 Au
atom 11.7321718030750901 13.5471450973686753 52.3948195410168722 Au
atom 10.2656503276907038 14.3938416659542181 54.7896390820337444 Au
atom 10.2656503276907038 12.7004485287831326 57.1844586230506167 Au
atom 10.2656503276907038 12.7004485287831326 50.0000000000000000 Au
atom 11.7321718030750901 13.5471450973686753 52.3948195410168722 Au
atom 10.2656503276907038 14.3938416659542181 54.7896390820337444 Au
atom 10.2656503276907038 12.7004485287831326 57.1844586230506167 Au
atom 11.7321718030750901 15.2405382345397609 50.0000000000000000 Au
atom 13.1986932784594764 16.0872348031253054 52.3948195410168722 Au
atom 11.7321718030750901 16.9339313717108482 54.7896390820337444 Au
atom 11.7321718030750901 15.2405382345397609 57.1844586230506167 Au
atom 11.7321718030750901 15.2405382345397609 50.0000000000000000 Au
atom 13.1986932784594764 16.0872348031253054 52.3948195410168722 Au
atom 11.7321718030750901 16.9339313717108482 54.7896390820337444 Au
atom 11.7321718030750901 15.2405382345397609 57.1844586230506167 Au
atom 11.7321718030750901 15.2405382345397609 50.0000000000000000 Au
atom 13.1986932784594764 16.0872348031253054 52.3948195410168722 Au
atom 11.7321718030750901 16.9339313717108482 54.7896390820337444 Au
atom 11.7321718030750901 15.2405382345397609 57.1844586230506167 Au
atom 11.7321718030750901 15.2405382345397609 50.0000000000000000 Au
atom 13.1986932784594764 16.0872348031253054 52.3948195410168722 Au
atom 11.7321718030750901 16.9339313717108482 54.7896390820337444 Au
atom 11.7321718030750901 15.2405382345397609 57.1844586230506167 Au
atom 13.1986932784594746 17.7806279402963838 50.0000000000000000 Au
atom 14.6652147538438609 18.6273245088819266 52.3948195410168722 Au
atom 13.1986932784594746 19.4740210774674694 54.7896390820337444 Au
atom 13.1986932784594746 17.7806279402963838 57.1844586230506167 Au
atom 13.1986932784594746 17.7806279402963838 50.0000000000000000 Au
atom 14.6652147538438609 18.6273245088819266 52.3948195410168722 Au
atom 13.1986932784594746 19.4740210774674694 54.7896390820337444 Au
atom 13.1986932784594746 17.7806279402963838 57.1844586230506167 Au
atom 13.1986932784594746 17.7806279402963838 50.0000000000000000 Au
atom 14.6652147538438609 18.6273245088819266 52.3948195410168722 Au
atom 13.1986932784594746 19.4740210774674694 54.7896390820337444 Au
atom 13.1986932784594746 17.7806279402963838 57.1844586230506167 Au
atom 13.1986932784594746 17.7806279402963838 50.0000000000000000 Au
atom 14.6652147538438609 18.6273245088819266 52.3948195410168722 Au
atom 13.1986932784594746 19.4740210774674694 54.7896390820337444 Au
atom 13.1986932784594746 17.7806279402963838 57.1844586230506167 Au
atom 14.6652147538438626 20.3207176460530121 50.0000000000000000 Au
atom 16.1317362292282489 21.1674142146385549 52.3948195410168722 Au
atom 14.6652147538438626 22.0141107832240976 54.7896390820337444 Au
atom 14.6652147538438626 20.3207176460530121 57.1844586230506167 Au
atom 14.6652147538438626 20.3207176460530121 50.0000000000000000 Au
atom 16.1317362292282489 21.1674142146385549 52.3948195410168722 Au
atom 14.6652147538438626 22.0141107832240976 54.7896390820337444 Au
atom 14.6652147538438626 20.3207176460530121 57.1844586230506167 Au
atom 14.6652147538438626 20.3207176460530121 50.0000000000000000 Au
atom 16.1317362292282489 21.1674142146385549 52.3948195410168722 Au
atom 14.6652147538438626 22.0141107832240976 54.7896390820337444 Au
atom 14.6652147538438626 20.3207176460530121 57.1844586230506167 Au
atom 14.6652147538438626 20.3207176460530121 50.0000000000000000 Au
atom 16.1317362292282489 21.1674142146385549 52.3948195410168722 Au
atom 14.6652147538438626 22.0141107832240976 54.7896390820337444 Au
atom 14.6652147538438626 20.3207176460530121 57.1844586230506167 Au
atom 16.1317362292282489 22.8608073518096404 50.0000000000000000 Au
atom 17.5982577046126352 23.7075039203951832 52.3948195410168722 Au
atom 16.1317362292282489 24.5542004889807259 54.7896390820337444 Au
atom 16.1317362292282489 22.8608073518096404 57.1844586230506167 Au
atom 16.1317362292282489 22.8608073518096404 50.0000000000000000 Au
atom 17.5982577046126352 23.7075039203951832 52.3948195410168722 Au
atom 16.1317362292282489 24.5542004889807259 54.7896390820337444 Au
atom 16.1317362292282489 22.8608073518096404 57.1844586230506167 Au
atom 16.1317362292282489 22.8608073518096404 50.0000000000000000 Au
atom 17.5982577046126352 23.7075039203951832 52.3948195410168722 Au
atom 16.1317362292282489 24.5542004889807259 54.7896390820337444 Au
atom 16.1317362292282489 22.8608073518096404 57.1844586230506167 Au
atom 16.1317362292282489 22.8608073518096404 50.0000000000000000 Au
atom 17.5982577046126352 23.7075039203951832 52.3948195410168722 Au
atom 16.1317362292282489 24.5542004889807259 54.7896390820337444 Au
atom 16.1317362292282489 22.8608073518096404 57.1844586230506167 Au
atom 17.5982577046126352 25.4008970575662651 50.0000000000000000 Au
atom 19.0647791799970214 26.2475936261518079 52.3948195410168722 Au
atom 17.5982577046126352 27.0942901947373507 54.7896390820337444 Au
atom 17.5982577046126352 25.4008970575662651 57.1844586230506167 Au
atom 17.5982577046126352 25.4008970575662651 50.0000000000000000 Au
atom 19.0647791799970214 26.2475936261518079 52.3948195410168722 Au
atom 17.5982577046126352 27.0942901947373507 54.7896390820337444 Au
atom 17.5982577046126352 25.4008970575662651 57.1844586230506167 Au
atom 17.5982577046126352 25.4008970575662651 50.0000000000000000 Au
atom 19.0647791799970214 26.2475936261518079 52.3948195410168722 Au
atom 17.5982577046126352 27.0942901947373507 54.7896390820337444 Au
atom 17.5982577046126352 25.4008970575662651 57.1844586230506167 Au
atom 17.5982577046126352 25.4008970575662651 50.0000000000000000 Au
atom 19.0647791799970214 26.2475936261518079 52.3948195410168722 Au
atom 17.5982577046126352 27.0942901947373507 54.7896390820337444 Au
atom 17.5982577046126352 25.4008970575662651 57.1844586230506167 Au
atom 19.0647791799970214 27.9409867633228934 50.0000000000000000 Au
atom 20.5313006553814077 28.7876833319084362 52.3948195410168722 Au
atom 19.0647791799970214 29.6343799004939790 54.7896390820337444 Au
atom 19.0647791799970214 27.9409867633228934 57.1844586230506167 Au
atom 19.0647791799970214 27.9409867633228934 50.0000000000000000 Au
atom 20.5313006553814077 28.7876833319084362 52.3948195410168722 Au
atom 19.0647791799970214 29.6343799004939790 54.7896390820337444 Au
atom 19.0647791799970214 27.9409867633228934 57.1844586230506167 Au
atom 19.0647791799970214 27.9409867633228934 50.0000000000000000 Au
atom 20.5313006553814077 28.7876833319084362 52.3948195410168722 Au
atom 19.0647791799970214 29.6343799004939790 54.7896390820337444 Au
atom 19.0647791799970214 27.9409867633228934 57.1844586230506167 Au
atom 19.0647791799970214 27.9409867633228934 50.0000000000000000 Au
atom 20.5313006553814077 28.7876833319084362 52.3948195410168722 Au
atom 19.0647791799970214 29.6343799004939790 54.7896390820337444 Au
atom 19.0647791799970214 27.9409867633228934 57.1844586230506167 Au
atom 5.8660859015375451 0.0000000000000000 50.0000000000000000 Au
atom 7.3326073769219313 0.8466965685855422 52.3948195410168722 Au
atom 5.8660859015375451 1.6933931371710844 54.7896390820337444 Au
atom 5.8660859015375451 0.0000000000000000 57.1844586230506167 Au
atom 5.8660859015375451 0.0000000000000000 50.0000000000000000 Au
atom 7.3326073769219313 0.8466965685855422 52.3948195410168722 Au
atom 5.8660859015375451 1.6933931371710844 54.7896390820337444 Au
atom 5.8660859015375451 0.0000000000000000 57.1844586230506167 Au
atom 5.8660859015375451 0.0000000000000000 50.0000000000000000 Au
atom 7.3326073769219313 0.8466965685855422 52.3948195410168722 Au
atom 5.8660859015375451 1.6933931371710844 54.7896390820337444 Au
atom 5.8660859015375451 0.0000000000000000 57.1844586230506167 Au
atom 5.8660859015375451 0.0000000000000000 50.0000000000000000 Au
atom 7.3326073769219313 0.8466965685855422 52.3948195410168722 Au
atom 5.8660859015375451 1.6933931371710844 54.7896390820337444 Au
atom 5.8660859015375451 0.0000000000000000 57.1844586230506167 Au
atom 7.3326073769219313 2.5400897057566265 50.0000000000000000 Au
atom 8.7991288523063194 3.3867862743421688 52.3948195410168722 Au
atom 7.3326073769219304 4.2334828429277120 54.7896390820337444 Au
atom 7.3326073769219313 2.5400897057566265 57.1844586230506167 Au
atom 7.3326073769219313 2.5400897057566265 50.0000000000000000 Au
atom 8.7991288523063194 3.3867862743421688 52.3948195410168722 Au
atom 7.3326073769219304 4.2334828429277120 54.7896390820337444 Au
atom 7.3326073769219313 2.5400897057566265 57.1844586230506167 Au
atom 7.3326073769219313 2.5400897057566265 50.0000000000000000 Au
atom 8.7991288523063194 3.3867862743421688 52.3948195410168722 Au
atom 7.3326073769219304 4.2334828429277120 54.7896390820337444 Au
atom 7.3326073769219313 2.5400897057566265 57.1844586230506167 Au
atom 7.3326073769219313 2.5400897057566265 50.0000000000000000 Au
atom 8.7991288523063194 3.3867862743421688 52.3948195410168722 Au
atom 7.3326073769219304 4.2334828429277120 54.7896390820337444 Au
atom 7.3326073769219313 2.5400897057566265 57.1844586230506167 Au
atom 8.7991288523063176 5.0801794115132530 50.0000000000000000 Au
atom 10.2656503276907038 5.9268759800987949 52.3948195410168722 Au
atom 8.7991288523063176 6.7735725486843377 54.7896390820337444 Au
atom 8.7991288523063176 5.0801794115132530 57.1844586230506167 Au
atom 8.7991288523063176 5.0801794115132530 50.0000000000000000 Au
atom 10.2656503276907038 5.9268759800987949 52.3948195410168722 Au
atom 8.7991288523063176 6.7735725486843377 54.7896390820337444 Au
atom 8.7991288523063176 5.0801794115132530 57.1844586230506167 Au
atom 8.7991288523063176 5.0801794115132530 50.0000000000000000 Au
atom 10.2656503276907038 5.9268759800987949 52.3948195410168722 Au
atom 8.7991288523063176 6.7735725486843377 54.7896390820337444 Au
atom 8.7991288523063176 5.0801794115132530 57.1844586230506167 Au
atom 8.7991288523063176 5.0801794115132530 50.0000000000000000 Au
atom 10.2656503276907038 5.9268759800987949 52.3948195410168722 Au
atom 8.7991288523063176 6.7735725486843377 54.7896390820337444 Au
atom 8.7991288523063176 5.0801794115132530 57.1844586230506167 Au
atom 10.2656503276907038 7.6202691172698795 50.0000000000000000 Au
atom 11.7321718030750901 8.4669656858554241 52.3948195410168722 Au
atom 10.2656503276907038 9.3136622544409651 54.7896390820337444 Au
atom 10.2656503276907038 7.6202691172698795 57.1844586230506167 Au
atom 10.2656503276907038 7.6202691172698795 50.0000000000000000 Au
atom 11.7321718030750901 8.4669656858554241 52.3948195410168722 Au
atom 10.2656503276907038 9.3136622544409651 54.7896390820337444 Au
atom 10.2656503276907038 7.6202691172698795 57.1844586230506167 Au