# 
# This is the geometry file that corresponds to the current relaxation step.
# If you do not want this file to be written, set the "write_restart_geometry" flag to .false.
#  aims_uuid : EF474314-4B22-4719-A12B-C113E0C8436D                                
# 
  set_vacuum_level        52.568975
lattice_vector     15.80931190      0.00000000      0.00000000
lattice_vector     -7.90633915     13.69010115      0.00000000
lattice_vector      0.00000000      0.00000000     99.93885963
atom       0.00056766      0.91423565      2.59884911 W
atom       1.58435823      1.81191682      4.17306466 S
atom       1.58421156      1.81138755      1.02421642 S
atom      -1.55935553      3.67177855      2.59873778 W
atom       0.03845980      4.59408150      4.16021697 S
atom       0.03811804      4.59406118      1.03679399 S
atom      -3.16818899      6.40091287      2.59893162 W
atom      -1.59899841      7.32354802      4.17331068 S
atom      -1.59927042      7.32371600      1.02441741 S
atom      -4.73546467      9.14338409      2.59901896 W
atom      -3.16167943     10.05665477      4.18138766 S
atom      -3.16171732     10.05662210      1.01657339 S
atom      -6.31365757     11.87614068      2.59899194 W
atom      -4.73579656     12.78244780      4.18131435 S
atom      -4.73582543     12.78222349      1.01648043 S
atom       3.17031758      0.90617246      2.59873476 W
atom       4.75614044      1.81168760      4.17319609 S
atom       4.75629829      1.81147936      1.02429073 S
atom       1.63056572      3.64330090      2.59824715 W
atom       3.17008017      4.52783837      4.17026570 S
atom       3.17004369      4.52637425      1.02564277 S
atom       0.01043718      6.44824125      2.59858503 W
atom       1.54567082      7.33930563      4.17125482 S
atom       1.54557138      7.33930517      1.02657715 S
atom      -1.59062383      9.14972278      2.59896546 W
atom      -0.01368200     10.07039320      4.17354441 S
atom      -0.01343649     10.07028461      1.02457967 S
atom      -3.15788147     11.87615764      2.59894670 W
atom      -1.57786660     12.78836726      4.18072500 S
atom      -1.57778123     12.78826389      1.01718126 S
atom       6.33998831      0.91421576      2.59888721 W
atom       7.91209511      1.84308459      4.17649915 S
atom       7.91218238      1.84310780      1.02141505 S
atom       4.70950819      3.64314953      2.59863673 W
atom       6.30141016      4.59375754      4.16072755 S
atom       6.30156437      4.59405311      1.03726629 S
atom       4.79393091      7.33938794      4.17239227 S
atom       4.79262396      7.33859938      1.02769538 S
atom       1.54946513      9.11437215      2.59930400 W
atom       3.16897287     10.01761480      4.16113801 S
atom       3.16915555     10.01733463      1.03771589 S
atom       0.00084875     11.89047200      2.59901653 W
atom       1.59137582     12.78751722      4.17661606 S
atom       1.59152056     12.78739394      1.02153396 S
atom       9.49389285      0.92577161      2.59899832 W
atom      11.07482063      1.83849691      4.17622857 S
atom      11.07479527      1.83845213      1.02173932 S
atom       7.89914327      3.67160424      2.59898803 W
atom       9.48913564      4.57482002      4.17652280 S
atom       9.48909465      4.57490841      1.02149954 S
atom       6.32860497      6.44797472      2.59936547 W
atom       7.93821406      7.32346743      4.17367084 S
atom       7.93792603      7.32349480      1.02480847 S
atom       4.78870378      9.11413267      2.59970495 W
atom       6.35191154     10.07038409      4.17376449 S
atom       6.35154448     10.07000347      1.02490742 S
atom       3.16877833     11.86222499      2.59921135 W
atom       4.74614780     12.78752895      4.17661217 S
atom       4.74607148     12.78732766      1.02160515 S
atom      12.65584620      0.92580695      2.59898209 W
atom      14.23760894      1.84326033      4.17639510 S
atom      14.23748334      1.84307045      1.02132647 S
atom      11.07456981      3.66392789      2.59896097 W
atom      12.65996842      4.57489628      4.17643141 S
atom      12.65977744      4.57494986      1.02132918 S
atom       9.50727464      6.40083016      2.59908082 W
atom      11.07421261      7.31892576      4.18079892 S
atom      11.07405929      7.31894984      1.01722370 S
atom       7.92903666      9.14961693      2.59924228 W
atom       9.50006954     10.05665166      4.18151239 S
atom       9.49988214     10.05651625      1.01665771 S
atom       6.33691525     11.89043112      2.59912667 W
atom       7.91555148     12.78842490      4.18078679 S
atom       7.91541221     12.78817795      1.01720008 S
# 
# What follows is the current estimated Hessian matrix constructed by the BFGS algorithm.
# This is NOT the true Hessian matrix of the system.
# If you do not want this information here, switch it off using the "hessian_to_restart_geometry" keyword.
# 
trust_radius             0.0004499644
hessian_file
