#
# temporary structure-file for finite-difference calculation of forces
# displacement  -0.0025 of \# atom    43 direction     2
#
lattice_vector   16.60000000    0.00000000    0.00000000
lattice_vector   -8.30000000   14.37602170    0.00000000
lattice_vector    0.00000000    0.00000000  100.00000000
atom   -0.01206544    0.95428546    2.67767269  Mo
atom    1.65584384    1.92066843    4.32717025  Se
atom    1.64298169    1.89651737    0.99228238  Se
atom   -1.66634294    3.84328084    2.68694026  Mo
atom    0.01990403    4.86102631    4.33068362  Se
atom   -0.00972597    4.79885075    0.99847721  Se
atom   -3.31773496    6.72246736    2.69330112  Mo
atom   -1.62166104    7.67453292    4.35827317  Se
atom   -1.65416912    7.64903727    0.98749135  Se
atom   -4.97515846    9.58045031    2.67800190  Mo
atom   -3.29725601   10.52927622    4.33035051  Se
atom   -3.30389856   10.53311553    1.01914440  Se
atom   -6.64094892   12.45973004    2.67932405  Mo
atom   -4.97915030   13.41846087    4.34048416  Se
atom   -4.98238250   13.39718816    1.00558449  Se
atom    3.31510563    0.94415092    2.65722256  Mo
atom    4.96378855    1.94368444    4.30422837  Se
atom    4.98289508    1.82747024    0.96239125  Se
atom    1.63522543    3.82249399    2.64642981  Mo
atom    3.29122860    4.92748018    4.14686121  Se
atom    3.31158850    4.63929529    0.89559725  Se
atom   -0.03779557    6.73221456    2.63030322  Mo
atom    2.07628104    7.42692896    1.66712201  Se
atom   -1.61932408    9.56055750    2.67042262  Mo
atom    0.01284205   10.50563375    4.35827568  Se
atom    0.01861716   10.54654182    0.98743447  Se
atom   -3.31449802   12.45679094    2.67801301  Mo
atom   -1.66587525   13.41959652    4.35179421  Se
atom   -1.65526615   13.40225377    1.00988800  Se
atom    6.64046454    0.94589953    2.66988281  Mo
atom    8.27669215    1.95022423    4.32980311  Se
atom    8.29433963    1.90919154    0.99724686  Se
atom    4.93258899    3.78600753    2.54880477  Mo
atom    6.55658739    4.84015015    4.21666416  Se
atom    6.62819826    4.79881921    0.92216364  Se
atom    4.84806491    7.62422308    4.14664594  Se
atom    5.10814833    7.75098413    0.89532186  Se
atom    1.62081231    9.60524638    2.63020675  Mo
atom    3.27018362   10.49067361    4.33065912  Se
atom    3.30919465   10.54753172    0.99838820  Se
atom   -0.01065850   12.45043523    2.69329494  Mo
atom    1.64807947   13.42545849    4.34989560  Se
atom    1.65146203   13.42256763    1.02780869  Se
atom    9.94525206    0.96886396    2.68117601  Mo
atom   11.60605483    1.92487094    4.35212208  Se
atom   11.61162466    1.92164808    1.02232195  Se
atom    8.27513109    3.84798141    2.63159680  Mo
atom    9.91941815    4.79549679    4.32979201  Se
atom    9.96376602    4.80071499    0.99722217  Se
atom    6.65743143    6.77368050    2.54876623  Mo
atom    8.26856722    7.66777680    4.30419069  Se
atom    8.37876155    7.70935784    0.96234476  Se
atom    4.97716376    9.61100229    2.64631502  Mo
atom    6.63449336   10.54400521    4.32712702  Se
atom    6.64903096   10.56729712    0.99224636  Se
atom    3.30840211   12.45988247    2.68693407  Mo
atom    4.97186461   13.41544817    4.35175324  Se
atom    4.96425556   13.42656943    1.01927809  Se
atom   13.27009384    0.96413901    2.68930277  Mo
atom   14.93783735    1.92493632    4.35175879  Se
atom   14.92439753    1.92596639    1.01926900  Se
atom   11.60358936    3.84117137    2.68366750  Mo
atom   13.26730117    4.79842961    4.34988460  Se
atom   13.27149641    4.79694351    1.02781563  Se
atom    9.97102131    6.71464256    2.66985116  Mo
atom   11.61533396    7.67130355    4.35177619  Se
atom   11.63566604    7.67078366    1.00987386  Se
atom    8.30985596    9.59534391    2.65719185  Mo
atom    9.95966122   10.54122267    4.34047787  Se
atom    9.97647501   10.55466901    1.00556208  Se
atom    6.63750398   12.47169223    2.67767403  Mo
atom    8.29720749   13.41920117    4.34829149  Se
atom    8.29623593   13.41976584    1.01146499  Se
