# 
# This is the geometry file that corresponds to the current relaxation step.
# If you do not want this file to be written, set the "write_restart_geometry" flag to .false.
#  aims_uuid : C8964458-40C7-4E6C-A71B-DFE9D448B546                                
# 
  set_vacuum_level        52.830000
lattice_vector      3.27148501     -0.00224388     -0.00306024
lattice_vector     -1.63414766      2.83414574      0.00132942
lattice_vector     -0.00228858      0.00318423    100.31474188
atom       0.00043693      0.94445595      2.66453871 W
atom       1.63834452      1.88773201      4.33745345 Se
atom       1.63517929      1.88752823      0.98839722 Se
# 
# What follows is the current estimated Hessian matrix constructed by the BFGS algorithm.
# This is NOT the true Hessian matrix of the system.
# If you do not want this information here, switch it off using the "hessian_to_restart_geometry" keyword.
# 
trust_radius             0.0001373669
hessian_file
