# 
# This is the geometry file that corresponds to the current relaxation step.
# If you do not want this file to be written, set the "write_restart_geometry" flag to .false.
#  aims_uuid : E6E750F1-88A5-4492-A4F8-33EEDC0BF3FD                                
# 
  set_vacuum_level        52.665000
lattice_vector      3.32000000      0.00000000      0.00000000
lattice_vector     -1.66000000      2.87520434      0.00000000
lattice_vector      0.00000000      0.00000000    100.00000000
atom       0.00000000      0.95840145      2.66500000 Mo
atom       1.66000000      1.91680289      4.29535272 Se
atom       1.66000000      1.91680289      1.03464728 Se
