# 
# This is the geometry file that corresponds to the current relaxation step.
# If you do not want this file to be written, set the "write_restart_geometry" flag to .false.
#  aims_uuid : 424D1BE2-9EF0-4B3F-A795-7EEDDA9046C3                                
# 
lattice_vector     16.60000000      0.00000000      0.00000000
lattice_vector     -8.30000000     14.37602170      0.00000000
lattice_vector      0.00000000      0.00000000    100.00000000
atom      -0.00057656      0.96859465      2.67678601 Mo
atom       1.65993201      1.96286935      4.32527637 Se
atom       1.65997157      1.92069297      0.99898824 Se
atom      -1.64685828      3.85377034      2.67410016 Mo
atom       0.05497119      4.89081358      4.30093047 Se
atom      -0.01509170      4.81332987      0.95868137 Se
atom      -3.29586751      6.71009223      2.67392443 Mo
atom      -1.54676979      7.66537663      4.30072477 Se
atom      -1.64889544      7.64341588      0.95844828 Se
atom      -4.97127968      9.57835500      2.67672319 Mo
atom      -3.27979680     10.51918893      4.32520293 Se
atom      -3.31641336     10.54049228      0.99902215 Se
atom      -6.64003112     12.45914059      2.67684184 Mo
atom      -4.97664357     13.41939313      4.34386878 Se
atom      -4.97619212     13.41967584      1.01002702 Se
atom       3.32051735      0.96861376      2.67681760 Mo
atom       4.96636954      1.93669828      4.35276606 Se
atom       4.98661621      1.92251965      1.01511164 Se
atom       1.65996635      3.87985958      2.63189082 Mo
atom       3.26493713      4.89089683      4.30093712 Se
atom       3.33504533      4.81335287      0.95867164 Se
atom       0.07756249      6.75346801      2.57509674 Mo
atom       1.66006025      7.66711575      0.85453835 Se
atom      -1.61974519      9.56081746      2.63166663 Mo
atom       0.05824408     10.44533273      4.30069469 Se
atom       0.02629209     10.54480234      0.95840151 Se
atom      -3.31072750     12.45454129      2.67692941 Mo
atom      -1.64938842     13.39594206      4.35277866 Se
atom      -1.65186943     13.42060675      1.01495588 Se
atom       6.63865283      0.95764987      2.69408247 Mo
atom       8.29568178      1.91426075      4.36905166 Se
atom       8.30163049      1.91781492      1.02977194 Se
atom       4.96683211      3.85381978      2.67424325 Mo
atom       6.61935462      4.80420735      4.35654721 Se
atom       6.64322824      4.79012598      1.01623259 Se
atom       3.24242500      6.75349054      2.57518542 Mo
atom       4.86683557      7.66543198      4.30086911 Se
atom       4.96884464      7.64336862      0.95857854 Se
atom       1.66002256      9.49452303      2.57498034 Mo
atom       3.26175818     10.44536706      4.30077729 Se
atom       3.29392302     10.54480686      0.95854263 Se
atom       0.01094043     12.43780744      2.67388576 Mo
atom       1.65996982     13.39378033      4.35630458 Se
atom       1.65990545     13.42163555      1.01613605 Se
atom       9.96002783      0.95380549      2.69881259 Mo
atom      11.62441952      1.91431629      4.36902377 Se
atom      11.61840287      1.91783086      1.02973278 Se
atom       8.29591951      3.83603417      2.69880712 Mo
atom       9.95999893      4.79724494      4.36899549 Se
atom       9.95988428      4.79012017      1.02952256 Se
atom       6.61590373      6.71025133      2.67402335 Mo
atom       8.27600988      7.66914476      4.35260843 Se
atom       8.29825176      7.65861499      1.01483795 Se
atom       4.93975474      9.56079161      2.63181595 Mo
atom       6.59998775     10.51928977      4.32522805 Se
atom       6.63649572     10.54040112      0.99904709 Se
atom       3.30908154     12.43777726      2.67392367 Mo
atom       4.96948108     13.39589906      4.35263823 Se
atom       4.97176480     13.42059005      1.01496632 Se
atom      13.28130176      0.95766490      2.69399714 Mo
atom      14.95352293      1.93666502      4.35270894 Se
atom      14.93333764      1.92243399      1.01501382 Se
atom      11.62398103      3.83600750      2.69873722 Mo
atom      13.30059091      4.80402464      4.35632684 Se
atom      13.27670232      4.79007287      1.01615264 Se
atom       9.95999596      6.71040413      2.69383692 Mo
atom      11.64409921      7.66902549      4.35251081 Se
atom      11.62164199      7.65866766      1.01483223 Se
atom       8.29140208      9.57839971      2.67675058 Mo
atom       9.96009006     10.53850104      4.34377286 Se
atom       9.96002356     10.53803255      1.00986121 Se
atom       6.63076888     12.45455303      2.67681591 Mo
atom       8.29663708     13.41948217      4.34381467 Se
atom       8.29617682     13.41971511      1.00989325 Se
# 
# What follows is the current estimated Hessian matrix constructed by the BFGS algorithm.
# This is NOT the true Hessian matrix of the system.
# If you do not want this information here, switch it off using the "hessian_to_restart_geometry" keyword.
# 
trust_radius             0.0004598590
hessian_file
