# 
# This is the geometry file that corresponds to the current relaxation step.
# If you do not want this file to be written, set the "write_restart_geometry" flag to .false.
#  aims_uuid : 413A7A59-5CE7-4312-A77B-65B4F007325A                                
# 
lattice_vector     16.60000000      0.00000000      0.00000000
lattice_vector     -8.30000000     14.37602170      0.00000000
lattice_vector      0.00000000      0.00000000    100.00000000
atom      -0.00052505      0.96866749      2.67722249 Mo
atom       1.66000343      1.96373563      4.32512251 Se
atom       1.66002433      1.92005063      0.99890744 Se
atom      -1.64675438      3.85383456      2.67382547 Mo
atom       0.05545282      4.89162226      4.29950495 Se
atom      -0.01544711      4.81290924      0.95735974 Se
atom      -3.29583056      6.71013181      2.67382937 Mo
atom      -1.54593440      7.66540827      4.29954198 Se
atom      -1.64964363      7.64342997      0.95732301 Se
atom      -4.97133017      9.57837187      2.67722538 Mo
atom      -3.27932228     10.51892024      4.32515479 Se
atom      -3.31713077     10.54072206      0.99893048 Se
atom      -6.63998946     12.45918012      2.67761884 Mo
atom      -4.97649401     13.41959137      4.34450386 Se
atom      -4.97632501     13.41968832      1.01057289 Se
atom       3.32053771      0.96867807      2.67726706 Mo
atom       4.96609700      1.93714882      4.35317919 Se
atom       4.98687824      1.92204691      1.01544871 Se
atom       1.66000327      3.87999840      2.63067132 Mo
atom       3.26455190      4.89158776      4.29951980 Se
atom       3.33547239      4.81290763      0.95740456 Se
atom       0.07768919      6.75365141      2.57308259 Mo
atom       1.66002985      7.66725365      0.85219967 Se
atom      -1.61974160      9.56083764      2.63066461 Mo
atom       0.05857999     10.44467422      4.29952192 Se
atom       0.02585059     10.54541501      0.95731244 Se
atom      -3.31080156     12.45450647      2.67726539 Mo
atom      -1.64928510     13.39537067      4.35317241 Se
atom      -1.65196191     13.42092478      1.01544951 Se
atom       6.63859313      0.95758328      2.69496864 Mo
atom       8.29537065      1.91419937      4.37026272 Se
atom       8.30173311      1.91780978      1.03097225 Se
atom       4.96682368      3.85380053      2.67383334 Mo
atom       6.61864786      4.80437218      4.35667926 Se
atom       6.64386203      4.78981924      1.01650635 Se
atom       3.24229883      6.75367582      2.57317088 Mo
atom       4.86597941      7.66538467      4.29958688 Se
atom       4.96959854      7.64340782      0.95739916 Se
atom       1.66000104      9.49438603      2.57307574 Mo
atom       3.26134038     10.44465390      4.29958988 Se
atom       3.29415700     10.54545538      0.95733881 Se
atom       0.01096150     12.43768779      2.67383278 Mo
atom       1.65999478     13.39306234      4.35675093 Se
atom       1.66002084     13.42224181      1.01653092 Se
atom       9.96001417      0.95373438      2.69999206 Mo
atom      11.62462861      1.91420615      4.37021904 Se
atom      11.61821352      1.91778171      1.03087530 Se
atom       8.29591672      3.83597246      2.69993304 Mo
atom       9.95999887      4.79736228      4.37018823 Se
atom       9.95994719      4.78988673      1.03086969 Se
atom       6.61583959      6.71015483      2.67382809 Mo
atom       8.27545984      7.66903031      4.35306265 Se
atom       8.29877704      7.65864631      1.01540337 Se
atom       4.93969573      9.56080324      2.63072704 Mo
atom       6.59929665     10.51890145      4.32512879 Se
atom       6.63704702     10.54070282      0.99893948 Se
atom       3.30903897     12.43770896      2.67384902 Mo
atom       4.96932976     13.39545033      4.35309317 Se
atom       4.97197326     13.42089954      1.01540772 Se
atom      13.28138781      0.95760374      2.69484608 Mo
atom      14.95388200      1.93713595      4.35311401 Se
atom      14.93317702      1.92208118      1.01541112 Se
atom      11.62405567      3.83595097      2.69988316 Mo
atom      13.30133580      4.80430095      4.35666884 Se
atom      13.27613985      4.78976424      1.01653567 Se
atom       9.96001873      6.71039777      2.69480116 Mo
atom      11.64456211      7.66902014      4.35309329 Se
atom      11.62120733      7.65862020      1.01536804 Se
atom       8.29132956      9.57838107      2.67723121 Mo
atom       9.96000934     10.53835740      4.34445316 Se
atom       9.95999989     10.53817437      1.01053190 Se
atom       6.63080138     12.45451289      2.67722986 Mo
atom       8.29652216     13.41959523      4.34445555 Se
atom       8.29635795     13.41967757      1.01055933 Se
# 
# What follows is the current estimated Hessian matrix constructed by the BFGS algorithm.
# This is NOT the true Hessian matrix of the system.
# If you do not want this information here, switch it off using the "hessian_to_restart_geometry" keyword.
# 
trust_radius             0.0002266708
hessian_file
