#
lattice_vector      16.238659     -0.000     -0.00
lattice_vector      -8.11989635    14.06215255     -0.00
lattice_vector      0.0000      0.0000     99.93951163
atom_frac 0.03363249 0.06734537 0.02675125 Mo
atom_frac 0.16813699 0.13625315 0.04320331 Se
atom_frac 0.16682950 0.13368122 0.01003666 Se
atom_frac 0.03470246 0.26797299 0.02673983 Mo
atom_frac 0.17306422 0.33977677 0.04299977 Se
atom_frac 0.16665219 0.33499227 0.00969995 Se
atom_frac 0.03471387 0.46674288 0.02673804 Mo
atom_frac 0.17305214 0.53328234 0.04300094 Se
atom_frac 0.16665744 0.53164931 0.00969671 Se
atom_frac 0.03366794 0.66633133 0.02674637 Mo
atom_frac 0.16814699 0.73188453 0.04320152 Se
atom_frac 0.16686670 0.73317707 0.01003047 Se
atom_frac 0.03335235 0.86665769 0.02673765 Mo
atom_frac 0.16690139 0.93345018 0.04336818 Se
atom_frac 0.16696444 0.93349027 0.01012442 Se
atom_frac 0.23366264 0.06730678 0.02674758 Mo
atom_frac 0.36653585 0.13456888 0.04344880 Se
atom_frac 0.36721191 0.13375935 0.01017786 Se
atom_frac 0.23482939 0.26964532 0.02635147 Mo
atom_frac 0.36671314 0.33974704 0.04300198 Se
atom_frac 0.36831828 0.33499084 0.00969696 Se
atom_frac 0.23944838 0.46972535 0.02587120 Mo
atom_frac 0.36667972 0.53333314 0.00875347 Se
atom_frac 0.23481568 0.66516877 0.02634795 Mo
atom_frac 0.36669505 0.72696499 0.04300099 Se
atom_frac 0.36834918 0.73335551 0.00969638 Se
atom_frac 0.23369300 0.86635021 0.02674592 Mo
atom_frac 0.36654909 0.93197437 0.04344899 Se
atom_frac 0.36723403 0.93345885 0.01017840 Se
atom_frac 0.43324129 0.06662526 0.02689541 Mo
atom_frac 0.56635702 0.13320033 0.04358673 Se
atom_frac 0.56678304 0.13341071 0.01029225 Se
atom_frac 0.43327023 0.26797733 0.02673732 Mo
atom_frac 0.56594585 0.33401217 0.04349110 Se
atom_frac 0.56673491 0.33322339 0.01018889 Se
atom_frac 0.43029120 0.46971333 0.02587227 Mo
atom_frac 0.56025883 0.53329944 0.04300140 Se
atom_frac 0.56501544 0.53168219 0.00969843 Se
atom_frac 0.43026373 0.66056540 0.02587120 Mo
atom_frac 0.56020014 0.72693655 0.04300033 Se
atom_frac 0.56500129 0.73333238 0.00969929 Se
atom_frac 0.43329037 0.86530629 0.02673670 Mo
atom_frac 0.56599370 0.93193157 0.04348965 Se
atom_frac 0.56680111 0.93350983 0.01019274 Se
atom_frac 0.63318303 0.06639395 0.02693611 Mo
atom_frac 0.76679268 0.13318555 0.04358810 Se
atom_frac 0.76659761 0.13338034 0.01029681 Se
atom_frac 0.63319126 0.26681559 0.02693532 Mo
atom_frac 0.76680592 0.33363409 0.04358705 Se
atom_frac 0.76660261 0.33321598 0.01029336 Se
atom_frac 0.63201208 0.46670792 0.02673753 Mo
atom_frac 0.76541512 0.53344690 0.04344907 Se
atom_frac 0.76621741 0.53277437 0.01017890 Se
atom_frac 0.63035226 0.66518662 0.02635271 Mo
atom_frac 0.76374331 0.73184601 0.04320408 Se
atom_frac 0.76631278 0.73313174 0.01003860 Se
atom_frac 0.63203399 0.86528382 0.02674015 Mo
atom_frac 0.76543516 0.93197670 0.04345631 Se
atom_frac 0.76626123 0.93348125 0.01018069 Se
atom_frac 0.83336771 0.06662414 0.02690025 Mo
atom_frac 0.96801859 0.13457597 0.04345587 Se
atom_frac 0.96652100 0.13375865 0.01018097 Se
atom_frac 0.83360359 0.26680475 0.02693649 Mo
atom_frac 0.96807507 0.33405401 0.04348907 Se
atom_frac 0.96649465 0.33325588 0.01019416 Se
atom_frac 0.83337878 0.46675653 0.02689660 Mo
atom_frac 0.96802498 0.53346630 0.04345209 Se
atom_frac 0.96652234 0.53277722 0.01017873 Se
atom_frac 0.83268306 0.66630433 0.02674935 Mo
atom_frac 0.96657876 0.73309856 0.04336837 Se
atom_frac 0.96653395 0.73302896 0.01012576 Se
atom_frac 0.83267214 0.86635386 0.02675152 Mo
atom_frac 0.96654666 0.93343768 0.04336832 Se
atom_frac 0.96649768 0.93347937 0.01013094 Se
