# 
# This is the geometry file that corresponds to the current relaxation step.
# If you do not want this file to be written, set the "write_restart_geometry" flag to .false.
#  aims_uuid : 8A894D0C-FE18-4286-AFE0-D8A9153906D4                                
# 
lattice_vector     16.60000000      0.00000000      0.00000000
lattice_vector     -8.30000000     14.37602170      0.00000000
lattice_vector      0.00000000      0.00000000    100.00000000
atom      -0.01093320      0.94362365      2.66500000 Mo
atom       1.65262365      1.90020665      4.32578227 Se
atom       1.65262365      1.90020665      1.00421773 Se
atom      -1.65046098      3.83912404      2.66500000 Mo
atom       0.01737623      4.80206401      4.32923396 Se
atom       0.01737623      4.80206401      1.00076604 Se
atom      -3.33817597      6.70671570      2.66500000 Mo
atom      -1.67800468      7.66914395      4.32576814 Se
atom      -1.67800468      7.66914395      1.00423186 Se
atom      -4.97995257      9.58518875      2.66500000 Mo
atom      -3.32411272     10.54478030      4.33324627 Se
atom      -3.32411272     10.54478030      0.99675373 Se
atom      -6.63898426     12.45860410      2.66500000 Mo
atom      -4.97999291     13.41282960      4.33323849 Se
atom      -4.97999291     13.41282960      0.99676151 Se
atom       3.31994990      0.94609059      2.66500000 Mo
atom       4.98732212      1.90023401      4.32576074 Se
atom       4.98732212      1.90023401      1.00423926 Se
atom       1.68241289      3.82749079      2.66500000 Mo
atom       3.32001086      4.75501066      4.33249603 Se
atom       3.32001086      4.75501066      0.99750397 Se
atom       0.00599722      6.73136229      2.66500000 Mo
atom       1.62797409      7.68577395      4.33251704 Se
atom       1.62797409      7.68577395      0.99748296 Se
atom      -1.67061504      9.59015774      2.66500000 Mo
atom      -0.01069788     10.55708431      4.32579144 Se
atom      -0.01069788     10.55708431      1.00420856 Se
atom      -3.32105073     12.45862008      2.66500000 Mo
atom      -1.66423720     13.41521152      4.33823111 Se
atom      -1.66423720     13.41521152      0.99176889 Se
atom       6.65093476      0.94373771      2.66500000 Mo
atom       8.30159054      1.91905124      4.33130206 Se
atom       8.30159054      1.91905124      0.99869794 Se
atom       4.95757672      3.82756723      2.66500000 Mo
atom       6.62261614      4.80206304      4.32920116 Se
atom       6.62261614      4.80206304      1.00079884 Se
atom       5.01211400      7.68572805      4.33254266 Se
atom       5.01211400      7.68572805      0.99745734 Se
atom       1.64345167      9.56765678      2.66500000 Mo
atom       3.31995734     10.52235754      4.32923889 Se
atom       3.31995734     10.52235754      1.00076111 Se
atom      -0.00731841     12.47604497      2.66500000 Mo
atom       1.66274094     13.41790206      4.33128919 Se
atom       1.66274094     13.41790206      0.99871081 Se
atom       9.96411944      0.96079803      2.66500000 Mo
atom      11.61997180      1.91680722      4.33437182 Se
atom      11.61997180      1.91680722      0.99562818 Se
atom       8.29043948      3.83913871      2.66500000 Mo
atom       9.95888544      4.78949734      4.33129601 Se
atom       9.95888544      4.78949734      0.99870399 Se
atom       6.63407473      6.73128090      2.66500000 Mo
atom       8.31805308      7.66912883      4.32579750 Se
atom       8.31805308      7.66912883      1.00420250 Se
atom       4.99645438      9.56763511      2.66500000 Mo
atom       6.65067912     10.55704841      4.32577619 Se
atom       6.65067912     10.55704841      1.00422381 Se
atom       3.31994951     12.44817470      2.66500000 Mo
atom       4.97722790     13.41783486      4.33128442 Se
atom       4.97722790     13.41783486      0.99871558 Se
atom      13.27586684      0.96077621      2.66500000 Mo
atom      14.93839373      1.91906059      4.33128302 Se
atom      14.93839373      1.91906059      0.99871698 Se
atom      11.62001419      3.82883771      2.66500000 Mo
atom      13.28117758      4.78947999      4.33129653 Se
atom      13.28117758      4.78947999      0.99870347 Se
atom       9.97822338      6.70667406      2.66500000 Mo
atom      11.62002194      7.67207176      4.33824279 Se
atom      11.62002194      7.67207176      0.99175721 Se
atom       8.31064415      9.59012835      2.66500000 Mo
atom       9.96415074     10.54479180      4.33322212 Se
atom       9.96415074     10.54479180      0.99677788 Se
atom       6.64727092     12.47599451      2.66500000 Mo
atom       8.30421362     13.41513785      4.33826654 Se
atom       8.30421362     13.41513785      0.99173346 Se
# 
# What follows is the current estimated Hessian matrix constructed by the BFGS algorithm.
# This is NOT the true Hessian matrix of the system.
# If you do not want this information here, switch it off using the "hessian_to_restart_geometry" keyword.
# 
trust_radius             0.0006624432
hessian_file
