# 
# This is the geometry file that corresponds to the current relaxation step.
# If you do not want this file to be written, set the "write_restart_geometry" flag to .false.
#  aims_uuid : B7FAB198-B41C-4A1D-AF10-4E884F330F40                                
# 
  set_vacuum_level        52.575052
lattice_vector     16.41708800      0.00000000      0.00000000
lattice_vector     -8.21125790     14.21583190      0.00000000
lattice_vector      0.00000000      0.00000000     99.89650741
atom       0.04116914      1.03039316      2.68076497 Mo
atom       1.69121163      1.99882667      4.33755824 Se
atom       1.67774467      1.96586638      0.98162151 Se
atom      -1.59339317      3.88168446      2.68837944 Mo
atom       0.07829480      4.89976855      4.34070832 Se
atom       0.03744079      4.82281640      0.97769122 Se
atom      -3.22042969      6.72732546      2.69387015 Mo
atom      -1.52890152      7.67035039      4.36147245 Se
atom      -1.57699909      7.64318629      0.97403863 Se
atom      -4.87109384      9.55432019      2.67997091 Mo
atom      -3.20873176     10.49190116      4.34295392 Se
atom      -3.22050385     10.49864109      1.00652324 Se
atom      -6.51926891     12.40275874      2.68187792 Mo
atom      -4.87467341     13.35557435      4.35341034 Se
atom      -4.87783873     13.33540224      0.99751411 Se
atom       3.33021507      1.02563640      2.66011899 Mo
atom       4.95827968      2.02084626      4.31712386 Se
atom       4.97994037      1.91177380      0.96163431 Se
atom       1.67448720      3.88302453      2.64025580 Mo
atom       3.29220851      5.00489032      4.16478131 Se
atom       3.31984836      4.70402582      0.87963554 Se
atom       0.04558656      6.73817871      2.61468134 Mo
atom       2.07674988      7.44108085      1.47533021 Se
atom      -1.55108083      9.53514093      2.66647477 Mo
atom       0.07462070     10.44869461      4.36161265 Se
atom       0.07440013     10.50385101      0.97415118 Se
atom      -3.22828672     12.40028131      2.67989807 Mo
atom      -1.59455702     13.34732150      4.36531607 Se
atom      -1.58487077     13.33618974      1.00282743 Se
atom       6.61863904      1.02112386      2.67603954 Mo
atom       8.23757571      2.00594931      4.35182891 Se
atom       8.25610079      1.96928292      0.99383692 Se
atom       4.93104373      3.86121397      2.56205280 Mo
atom       6.53930612      4.86495440      4.25119132 Se
atom       6.61326931      4.82265786      0.91551731 Se
atom       4.79476648      7.60770045      4.16642705 Se
atom       5.06690012      7.73243139      0.88224416 Se
atom       1.66954412      9.55158905      2.61500460 Mo
atom       3.27746991     10.44300896      4.34137087 Se
atom       3.32415269     10.51652025      0.97829014 Se
atom       0.04532554     12.38498489      2.69396738 Mo
atom       1.68092250     13.35012574      4.36741226 Se
atom       1.68540352     13.35407607      1.01879826 Se
atom       9.88894512      1.03750833      2.69166741 Mo
atom      11.53202558      1.98339580      4.37288053 Se
atom      11.53612267      1.98099005      1.01757425 Se
atom       8.23520436      3.88633665      2.64410449 Mo
atom       9.86472583      4.82465883      4.35189216 Se
atom       9.90571578      4.82712623      0.99388679 Se
atom       6.60435542      6.76000151      2.56272201 Mo
atom       8.21173004      7.65682289      4.31768586 Se
atom       8.31661018      7.69267918      0.96203378 Se
atom       4.95646902      9.56918754      2.64146140 Mo
atom       6.59681727     10.49723207      4.33821002 Se
atom       6.61803727     10.52468755      0.98216092 Se
atom       3.32323306     12.39947439      2.68874192 Mo
atom       4.96597395     13.34275032      4.37007641 Se
atom       4.96016589     13.35906835      1.00992652 Se
atom      13.17732018      1.03369987      2.69624157 Mo
atom      14.82853592      1.98757413      4.36994496 Se
atom      14.81130402      1.98416916      1.00969023 Se
atom      11.52931134      3.87929306      2.69164269 Mo
atom      13.17924912      4.82826980      4.36725334 Se
atom      13.17772366      4.82248575      1.01862852 Se
atom       9.90767748      6.71919444      2.67622651 Mo
atom      11.54321912      7.66595486      4.36537609 Se
atom      11.55742207      7.66316811      1.00288560 Se
atom       8.25895364      9.56431329      2.66060257 Mo
atom       9.89544694     10.50222904      4.35357540 Se
atom       9.91097451     10.51479022      0.99770337 Se
atom       6.60987179     12.40998501      2.68097583 Mo
atom       8.25431575     13.35155471      4.36191189 Se
atom       8.25265527     13.35222842      1.00363852 Se
# 
# What follows is the current estimated Hessian matrix constructed by the BFGS algorithm.
# This is NOT the true Hessian matrix of the system.
# If you do not want this information here, switch it off using the "hessian_to_restart_geometry" keyword.
# 
trust_radius             0.0005712500
hessian_file
