# 
# This is the geometry file that corresponds to the current relaxation step.
# If you do not want this file to be written, set the "write_restart_geometry" flag to .false.
#  aims_uuid : 3AB2F6C9-A46E-4BAD-AC61-AD4A25CB115F                                
# 
  set_vacuum_level        53.072130
lattice_vector     15.66599045      0.00000000      0.00000000
lattice_vector     -7.83292280     13.56702030      0.00000000
lattice_vector      0.00000000      0.00000000     99.99930752
atom       1.56660980      0.90485787      3.07247770 Mo
atom       0.00000623      1.80931573      4.61792013 S
atom       0.00000623      1.80931573      1.52703334 S
atom       0.00002524      3.61826193      3.07247770 Mo
atom      -1.56657833      4.52271979      4.61792013 S
atom      -1.56657833      4.52271979      1.52703334 S
atom      -1.56655932      6.33166599      3.07247770 Mo
atom      -3.13316289      7.23612385      4.61792013 S
atom      -3.13316289      7.23612385      1.52703334 S
atom      -3.13314388      9.04507005      3.07247770 Mo
atom      -4.69974745      9.94952791      4.61792013 S
atom      -4.69974745      9.94952791      1.52703334 S
atom      -4.69972844     11.75847411      3.07247770 Mo
atom      -6.26633201     12.66293197      4.61792013 S
atom      -6.26633201     12.66293197      1.52703334 S
atom       4.69980789      0.90485787      3.07247770 Mo
atom       3.13320432      1.80931573      4.61792013 S
atom       3.13320432      1.80931573      1.52703334 S
atom       3.13322333      3.61826193      3.07247770 Mo
atom       1.56661976      4.52271979      4.61792013 S
atom       1.56661976      4.52271979      1.52703334 S
atom       1.56663877      6.33166599      3.07247770 Mo
atom       0.00003520      7.23612385      4.61792013 S
atom       0.00003520      7.23612385      1.52703334 S
atom       0.00005421      9.04507005      3.07247770 Mo
atom      -1.56654936      9.94952791      4.61792013 S
atom      -1.56654936      9.94952791      1.52703334 S
atom      -1.56653035     11.75847411      3.07247770 Mo
atom      -3.13313392     12.66293197      4.61792013 S
atom      -3.13313392     12.66293197      1.52703334 S
atom       7.83300598      0.90485787      3.07247770 Mo
atom       6.26640241      1.80931573      4.61792013 S
atom       6.26640241      1.80931573      1.52703334 S
atom       6.26642142      3.61826193      3.07247770 Mo
atom       4.69981785      4.52271979      4.61792013 S
atom       4.69981785      4.52271979      1.52703334 S
atom       4.69983686      6.33166599      3.07247770 Mo
atom       3.13323329      7.23612385      4.61792013 S
atom       3.13323329      7.23612385      1.52703334 S
atom       3.13325230      9.04507005      3.07247770 Mo
atom       1.56664873      9.94952791      4.61792013 S
atom       1.56664873      9.94952791      1.52703334 S
atom       1.56666774     11.75847411      3.07247770 Mo
atom       0.00006417     12.66293197      4.61792013 S
atom       0.00006417     12.66293197      1.52703334 S
atom      10.96620407      0.90485787      3.07247770 Mo
atom       9.39960050      1.80931573      4.61792013 S
atom       9.39960050      1.80931573      1.52703334 S
atom       9.39961951      3.61826193      3.07247770 Mo
atom       7.83301594      4.52271979      4.61792013 S
atom       7.83301594      4.52271979      1.52703334 S
atom       7.83303495      6.33166599      3.07247770 Mo
atom       6.26643138      7.23612385      4.61792013 S
atom       6.26643138      7.23612385      1.52703334 S
atom       6.26645039      9.04507005      3.07247770 Mo
atom       4.69984682      9.94952791      4.61792013 S
atom       4.69984682      9.94952791      1.52703334 S
atom       4.69986583     11.75847411      3.07247770 Mo
atom       3.13326226     12.66293197      4.61792013 S
atom       3.13326226     12.66293197      1.52703334 S
atom      14.09940216      0.90485787      3.07247770 Mo
atom      12.53279859      1.80931573      4.61792013 S
atom      12.53279859      1.80931573      1.52703334 S
atom      12.53281760      3.61826193      3.07247770 Mo
atom      10.96621403      4.52271979      4.61792013 S
atom      10.96621403      4.52271979      1.52703334 S
atom      10.96623304      6.33166599      3.07247770 Mo
atom       9.39962947      7.23612385      4.61792013 S
atom       9.39962947      7.23612385      1.52703334 S
atom       9.39964848      9.04507005      3.07247770 Mo
atom       7.83304491      9.94952791      4.61792013 S
atom       7.83304491      9.94952791      1.52703334 S
atom       7.83306392     11.75847411      3.07247770 Mo
atom       6.26646035     12.66293197      4.61792013 S
atom       6.26646035     12.66293197      1.52703334 S
# 
# What follows is the current estimated Hessian matrix constructed by the BFGS algorithm.
# This is NOT the true Hessian matrix of the system.
# If you do not want this information here, switch it off using the "hessian_to_restart_geometry" keyword.
# 
trust_radius             0.2000000030
hessian_file
