# 
# This is the geometry file that corresponds to the current relaxation step.
# If you do not want this file to be written, set the "write_restart_geometry" flag to .false.
#  aims_uuid : F496EC57-1A98-4B87-A9BD-32931AC3E545                                
# 
  set_vacuum_level        50.000000
lattice_vector      3.13505271     -0.00026078     -0.00000000
lattice_vector     -1.56773318      2.71487299     -0.00000000
lattice_vector     -0.00000000      0.00000000     99.99970664
atom      -0.78376678     -0.45236321     -0.00000004 Mo
atom       0.78374775      0.45237756      1.54400493 S
atom       0.78374774      0.45237756     -1.54400488 S
# 
# What follows is the current estimated Hessian matrix constructed by the BFGS algorithm.
# This is NOT the true Hessian matrix of the system.
# If you do not want this information here, switch it off using the "hessian_to_restart_geometry" keyword.
# 
trust_radius             0.0000684070
hessian_file
