# 
# This is the geometry file that corresponds to the current relaxation step.
# If you do not want this file to be written, set the "write_restart_geometry" flag to .false.
#  aims_uuid : E2F869F4-E4F2-43C1-A2A3-5552C62DB7CA                                
# 
lattice_vector     16.60000000      0.00000000      0.00000000
lattice_vector     -8.30000000     14.37602170      0.00000000
lattice_vector      0.00000000      0.00000000    100.00000000
atom      -0.00116804      0.95774016      2.65580370 Mo
atom       1.65843037      1.91589338      4.32588120 Se
atom       1.66061928      1.91717181      0.98805934 Se
atom      -1.65999235      3.83271741      2.65829619 Mo
atom      -0.00267562      4.79075526      4.33185240 Se
atom      -0.00359112      4.79456216      0.98712041 Se
atom      -3.31846641      6.70768523      2.66199326 Mo
atom      -1.66000236      7.66692006      4.33471194 Se
atom      -1.65999988      7.66860609      0.99137990 Se
atom      -4.98020918      9.58591871      2.66198990 Mo
atom      -3.32026189     10.54257434      4.33470259 Se
atom      -3.31879753     10.54171831      0.99137568 Se
atom      -6.64077610     12.45966262      2.65828864 Mo
atom      -4.98242933     13.41593387      4.33184256 Se
atom      -4.97959877     13.41323379      0.98710345 Se
atom       3.32287690      0.95273465      2.65700186 Mo
atom       4.97200741      1.91375376      4.33422579 Se
atom       4.97562899      1.90198880      0.97437995 Se
atom       1.65654860      3.83893200      2.65701926 Mo
atom       3.31338794      4.78660327      4.33425269 Se
atom       3.30498357      4.79564559      0.97439962 Se
atom      -0.00154704      6.70769436      2.66199500 Mo
atom       1.66454549      7.66459247      4.33001753 Se
atom       1.66039405      7.66699055      0.99351826 Se
atom      -1.65999187      9.58401445      2.66369452 Mo
atom       0.00026157     10.54257639      4.33470622 Se
atom      -0.00119728     10.54172038      0.99137870 Se
atom      -3.32174606     12.45845184      2.66197991 Mo
atom      -1.65999934     13.42286328      4.33000352 Se
atom      -1.65999702     13.41804793      0.99349167 Se
atom       6.63999865      0.96689093      2.65858313 Mo
atom       8.30799154      1.91375262      4.33422380 Se
atom       8.30437481      1.90198739      0.97438608 Se
atom       4.93499724      3.80761738      2.64779458 Mo
atom       6.63999516      4.79197614      4.24396134 Se
atom       6.63998887      4.79193214      6.50461919 Se
atom       6.63999536      4.79199497      1.02163460 Se
atom       3.32737392      6.70455633      2.65861763 Mo
atom       4.98137112      7.67564511      4.33425103 Se
atom       4.96935821      7.67839469      0.97440937 Se
atom       1.66021263      9.58591149      2.66199402 Mo
atom       3.31975175     10.54537383      4.33185863 Se
atom       3.31600441     10.54425808      0.98711759 Se
atom       0.00174845     12.45844879      2.66198350 Mo
atom       1.66242835     13.41593501      4.33184704 Se
atom       1.65959893     13.41323285      0.98710543 Se
atom       9.95712676      0.95273992      2.65700532 Mo
atom      11.62157288      1.91589493      4.32588239 Se
atom      11.61938364      1.91717052      0.98806121 Se
atom       8.34499941      3.80762620      2.64779478 Mo
atom       9.96661063      4.78660313      4.33425613 Se
atom       9.97501207      4.79564175      0.97439625 Se
atom       6.64000571      6.76074880      2.64781185 Mo
atom       8.29863492      7.67565217      4.33424863 Se
atom       8.31064514      7.67840101      0.97440596 Se
atom       4.97365185      9.58434510      2.65702456 Mo
atom       6.64000022     10.54423622      4.32589569 Se
atom       6.63999779     10.54169764      0.98807199 Se
atom       3.32077629     12.45966853      2.65829435 Mo
atom       4.98131202     13.41838579      4.32824068 Se
atom       4.97958032     13.41738224      0.98484942 Se
atom      13.28116594      0.95773130      2.65580530 Mo
atom      14.93999671      1.91529747      4.32824098 Se
atom      14.93999528      1.91730435      0.98484628 Se
atom      11.62345070      3.83893421      2.65701927 Mo
atom      13.28267444      4.79075549      4.33185228 Se
atom      13.28358967      4.79456053      0.98711908 Se
atom       9.95262012      6.70454634      2.65861452 Mo
atom      11.61545658      7.66459756      4.33000905 Se
atom      11.61960958      7.66699265      0.99351725 Se
atom       8.30634149      9.58435576      2.65702137 Mo
atom       9.96025046     10.54537149      4.33185408 Se
atom       9.96399670     10.54425588      0.98711158 Se
atom       6.64000271     12.46056457      2.65581042 Mo
atom       8.29869319     13.41838502      4.32823915 Se
atom       8.30042040     13.41738192      0.98484755 Se
# 
# What follows is the current estimated Hessian matrix constructed by the BFGS algorithm.
# This is NOT the true Hessian matrix of the system.
# If you do not want this information here, switch it off using the "hessian_to_restart_geometry" keyword.
# 
trust_radius             0.0005825162
hessian_file
