#
# temporary structure-file for finite-difference calculation of forces
# displacement   0.0025 of \# atom    69 direction     1
#
lattice_vector   15.90000000    0.00000000    0.00000000
lattice_vector   -7.95000000   13.76980392    0.00000000
lattice_vector    0.00000000    0.00000000  100.00000000
atom    0.00815891    0.91461085    2.62306467   W
atom    1.56436921    1.84618886    4.20575526   S
atom    1.63252892    1.82211568    1.07592192   S
atom   -1.58518476    3.67302690    2.59810398   W
atom   -0.00679169    4.59494038    4.17711235   S
atom    0.01404190    4.58310754    1.03253833   S
atom   -3.17789348    6.42728176    2.59298681   W
atom   -1.58680866    7.34284934    4.16823950   S
atom   -1.58672060    7.34429065    1.02732643   S
atom   -4.76631014    9.18110400    2.59921553   W
atom   -3.17925617   10.08703066    4.17754070   S
atom   -3.17955921   10.11097690    1.03293802   S
atom   -6.36000441   11.94220945    2.65343601   W
atom   -4.77435807   12.82454578    4.20617137   S
atom   -4.76103552   12.89557635    1.07695337   S
atom    3.26206652    0.96503319    2.85687554   W
atom    4.77181118    1.83584062    5.01250487   S
atom    4.77250957    1.83559171    1.14457514   S
atom    1.59433291    3.67142966    2.65101304   W
atom    3.15916346    4.60789044    4.20564106   S
atom    3.21397481    4.56107920    1.07593927   S
atom    0.00649845    6.42220397    2.59761386   W
atom    1.58761613    7.34754736    4.17037651   S
atom    1.59661769    7.33794013    1.03024123   S
atom   -1.59074321    9.18130168    2.59906902   W
atom    0.00134344   10.09250986    4.17115256   S
atom   -0.00328590   10.10488984    1.03043298   S
atom   -3.18013636   11.93501482    2.65277698   W
atom   -1.58556033   12.82389611    4.20634968   S
atom   -1.59924580   12.89471482    1.07647523   S
atom    6.28170459    0.96324888    2.85749049   W
atom    7.97604448    1.84608535    4.20643049   S
atom    7.90821046    1.82265097    1.07648547   S
atom    4.77127491    3.57907753    2.85692154   W
atom    6.38159651    4.60770124    4.19613933   S
atom    6.31619902    4.56078438    1.07676366   S
atom    3.18904169    6.42386799    2.62301102   W
atom    4.77028861    7.35024653    4.17682857   S
atom    4.77076333    7.33671684    1.03325320   S
atom    1.58963656    9.18033140    2.59486911   W
atom    3.17743184   10.09824469    4.16908038   S
atom    3.17839614   10.09880401    1.02680363   S
atom   -0.00168231   11.93908435    2.62379945   W
atom    1.59242511   12.84899740    4.17708639   S
atom    1.58081243   12.85603840    1.03395531   S
atom    9.53135063    0.91438233    2.62436947   W
atom   11.13435848    1.83705414    4.17050991   S
atom   11.12167424    1.83394254    1.03117792   S
atom    7.94858154    3.67206883    2.65275799   W
atom    9.54949973    4.59512571    4.17662506   S
atom    9.52868917    4.58358174    1.03303633   S
atom    6.35489338    6.42261188    2.62479338   W
atom    7.95395452    7.34751002    4.17134258   S
atom    7.94491710    7.33789635    1.03085043   S
atom    4.76703311    9.18121136    2.59882448   W
atom    6.35988941   10.09712495    4.16915785   S
atom    6.36371959   10.09748164    1.02783438   S
atom    3.17745303   11.93541889    2.60036391   W
atom    4.77001910   12.85197131    4.16971353   S
atom    4.77011076   12.85144092    1.02783037   S
atom   12.72036989    0.91747368    2.59714169   W
atom   14.30576451    1.83760731    4.17060061   S
atom   14.31816627    1.83456097    1.03060245   S
atom   11.12667129    3.67261319    2.59802183   W
atom   12.72056732    4.59121506    4.16817558   S
atom   12.72040313    4.58888514    1.02754900   S
atom    9.53933377    6.42515600    2.59876051   W
atom   11.13103488    7.34303327    4.16896374   S
atom   11.12950646    7.34434794    1.02788006   S
atom    7.95256795    9.18154067    2.59737668   W
atom    9.54095869   10.09284176    4.17205039   S
atom    9.54478717   10.10590381    1.03157745   S
atom    6.36073757   11.93478509    2.59988147   W
atom    7.94500611   12.84944547    4.17754410   S
atom    7.95722594   12.85564290    1.03354108   S
