# 
# This is the geometry file that corresponds to the current relaxation step.
# If you do not want this file to be written, set the "write_restart_geometry" flag to .false.
#  aims_uuid : 47ECAC7E-4A89-4FD2-A327-7E810B401FCD                                
# 
lattice_vector     15.90000000      0.00000000      0.00000000
lattice_vector     -7.95000000     13.76980392      0.00000000
lattice_vector      0.00000000      0.00000000    100.00000000
atom       0.01556864      0.94508234      2.62461982 W
atom       1.65175533      1.95821408      4.12387086 S
atom       1.57451974      1.84703309      0.98696963 S
atom      -1.53329616      3.70473956      2.63668823 W
atom       0.22440019      4.71936548      4.11082311 S
atom       0.00484315      4.59259537      0.96488779 S
atom      -3.14869774      6.42593111      2.62455836 W
atom      -1.45318636      7.33629227      4.12385085 S
atom      -1.58803551      7.32499410      0.98688559 S
atom      -4.76982242      9.17361095      2.62111842 W
atom      -3.14778741     10.08328035      4.16589723 S
atom      -3.19119061     10.09572292      1.03129973 S
atom      -6.36549335     11.93690380      2.62114537 W
atom      -4.76655692     12.88702154      4.16577388 S
atom      -4.77750561     12.84323311      1.03148066 S
atom       3.18001330      0.95173269      2.56626882 W
atom       4.71641684      1.91477148      4.13788801 S
atom       4.79442023      1.84398777      0.99320000 S
atom       1.68004199      3.74533317      2.47794617 W
atom       3.20859837      4.59685677      0.84397015 S
atom       0.10834004      6.46693476      2.47787295 W
atom       1.61015679      7.36514063      0.84387036 S
atom      -1.56098036      9.16303294      2.56620795 W
atom       0.04155132     10.01202178      4.13764472 S
atom       0.01926002     10.11502917      0.99332904 S
atom      -3.17718697     11.93540734      2.60733739 W
atom      -1.59667313     12.84800968      4.19017741 S
atom      -1.57944327     12.85797116      1.04618345 S
atom       6.35316091      0.92856465      2.61978609 W
atom       7.92528189      1.83931489      4.21882217 S
atom       7.96746526      1.83866728      1.07438044 S
atom       4.69795099      3.70475391      2.51078848 W
atom       6.23358838      4.58695501      4.15462881 S
atom       6.36325455      4.56804974      1.01053370 S
atom       3.11113525      6.38639311      2.40771050 W
atom       4.56191124      7.22373384      4.10304047 S
atom       4.74463007      7.32925356      0.94733704 S
atom       1.58265420      9.10081390      2.51073382 W
atom       3.11406141      9.98998803      4.15464273 S
atom       3.16265564     10.11179060      1.01042208 S
atom       0.00559644     11.92280173      2.61976966 W
atom       1.58055336     12.82866499      4.21875654 S
atom       1.60112399     12.86551163      1.07440982 S
atom       9.54227536      0.91926197      2.66305524 W
atom      11.13679986      1.83992875      4.24570378 S
atom      11.14146778      1.84261065      1.10258951 S
atom       7.92914113      3.67237552      2.64144246 W
atom       9.51910261      4.59504551      4.22880098 S
atom       9.54822282      4.58028647      1.08781803 S
atom       6.28918444      6.39839570      2.58514852 W
atom       7.88133461      7.31803309      4.18936391 S
atom       7.93795692      7.32836011      1.06015259 S
atom       4.71051738      9.13230489      2.58515488 W
atom       6.30320278     10.05125756      4.18937063 S
atom       6.34047998     10.09511968      1.06016093 S
atom       3.17023918     11.91565411      2.64143665 W
atom       4.76404409     12.83122390      4.22884683 S
atom       4.76584687     12.86382159      1.08779757 S
atom      12.73257756      0.92572361      2.67182966 W
atom      14.35692803      1.87155290      4.22124766 S
atom      14.30631905      1.85389258      1.08371752 S
atom      11.14300008      3.67908162      2.67181949 W
atom      12.77429695      4.61278716      4.22124022 S
atom      12.73369234      4.57774023      1.08368924 S
atom       9.52846736      6.42094316      2.64720175 W
atom      11.14958146      7.34527243      4.20228209 S
atom      11.12598640      7.32644297      1.06531726 S
atom       7.92332471      9.16456331      2.63119966 W
atom       9.53139652     10.09278462      4.19286337 S
atom       9.52185185     10.08728998      1.05833486 S
atom       6.34989579     11.92613560      2.64721472 W
atom       7.96094933     12.86811760      4.20228206 S
atom       7.93286303     12.85714001      1.06538960 S
# 
# What follows is the current estimated Hessian matrix constructed by the BFGS algorithm.
# This is NOT the true Hessian matrix of the system.
# If you do not want this information here, switch it off using the "hessian_to_restart_geometry" keyword.
# 
trust_radius             0.0016080154
hessian_file
