# 
# This is the geometry file that corresponds to the current relaxation step.
# If you do not want this file to be written, set the "write_restart_geometry" flag to .false.
#  aims_uuid : DC7688A1-5711-49F7-A979-FCF8C6E95705                                
# 
lattice_vector     15.90000000      0.00000000      0.00000000
lattice_vector     -7.95000000     13.76980392      0.00000000
lattice_vector      0.00000000      0.00000000    100.00000000
atom       0.01557123      0.94502999      2.62464230 W
atom       1.65180508      1.95822329      4.12385574 S
atom       1.57458908      1.84706241      0.98698999 S
atom      -1.53321553      3.70469132      2.63673468 W
atom       0.22440345      4.71948484      4.11091185 S
atom       0.00482890      4.59266883      0.96488670 S
atom      -3.14877565      6.42587270      2.62458824 W
atom      -1.45318598      7.33628537      4.12379959 S
atom      -1.58806482      7.32498312      0.98692303 S
atom      -4.77007127      9.17352313      2.62111815 W
atom      -3.14783499     10.08324877      4.16571678 S
atom      -3.19123777     10.09565326      1.03134989 S
atom      -6.36555840     11.93693330      2.62114468 W
atom      -4.76657623     12.88692452      4.16573912 S
atom      -4.77754558     12.84316174      1.03137933 S
atom       3.18006388      0.95155498      2.56626223 W
atom       4.71644211      1.91483708      4.13779860 S
atom       4.79446986      1.84404879      0.99325008 S
atom       1.67973902      3.74521048      2.47793698 W
atom       3.20848942      4.59686897      0.84403115 S
atom       0.10834262      6.46696901      2.47788400 W
atom       1.61023275      7.36513118      0.84395948 S
atom      -1.56083069      9.16313466      2.56621211 W
atom       0.04157672     10.01202801      4.13774855 S
atom       0.01925727     10.11502136      0.99319361 S
atom      -3.17707228     11.93551561      2.60729630 W
atom      -1.59662699     12.84796820      4.19014410 S
atom      -1.57936231     12.85795602      1.04612594 S
atom       6.35315627      0.92845500      2.61979232 W
atom       7.92524146      1.83932972      4.21873527 S
atom       7.96744575      1.83871032      1.07442505 S
atom       4.69778137      3.70492420      2.51082412 W
atom       6.23354844      4.58683393      4.15461064 S
atom       6.36326341      4.56798222      1.01052354 S
atom       3.11135403      6.38635273      2.40765945 W
atom       4.56188606      7.22377358      4.10312321 S
atom       4.74463204      7.32927007      0.94730896 S
atom       1.58247892      9.10089202      2.51074846 W
atom       3.11407537      9.98992693      4.15458065 S
atom       3.16265088     10.11170687      1.01048164 S
atom       0.00567829     11.92267016      2.61976826 W
atom       1.58051538     12.82872452      4.21873166 S
atom       1.60109296     12.86558306      1.07440556 S
atom       9.54227068      0.91930285      2.66306107 W
atom      11.13678828      1.83990529      4.24571256 S
atom      11.14148912      1.84260058      1.10260532 S
atom       7.92922468      3.67258077      2.64146365 W
atom       9.51915732      4.59502991      4.22884882 S
atom       9.54828816      4.58025983      1.08780515 S
atom       6.28911310      6.39836129      2.58518207 W
atom       7.88130357      7.31807242      4.18931220 S
atom       7.93789509      7.32838387      1.06017205 S
atom       4.71068360      9.13231004      2.58516945 W
atom       6.30325530     10.05128382      4.18932478 S
atom       6.34049491     10.09515536      1.06016908 S
atom       3.17012009     11.91554951      2.64144733 W
atom       4.76396640     12.83120603      4.22885371 S
atom       4.76577251     12.86382064      1.08781641 S
atom      12.73265887      0.92574167      2.67187636 W
atom      14.35693308      1.87155602      4.22127046 S
atom      14.30630484      1.85390502      1.08372075 S
atom      11.14307879      3.67903857      2.67186246 W
atom      12.77432934      4.61278733      4.22123989 S
atom      12.73373653      4.57772324      1.08370779 S
atom       9.52840555      6.42086239      2.64723330 W
atom      11.14961386      7.34531144      4.20226808 S
atom      11.12602545      7.32644890      1.06529786 S
atom       7.92347105      9.16458577      2.63121743 W
atom       9.53141383     10.09288899      4.19292202 S
atom       9.52183997     10.08738013      1.05820893 S
atom       6.34981854     11.92631029      2.64725356 W
atom       7.96101055     12.86807387      4.20230820 S
atom       7.93288340     12.85709144      1.06532720 S
# 
# What follows is the current estimated Hessian matrix constructed by the BFGS algorithm.
# This is NOT the true Hessian matrix of the system.
# If you do not want this information here, switch it off using the "hessian_to_restart_geometry" keyword.
# 
trust_radius             0.0003108333
hessian_file
