lattice_vector      15.6725379     -0.000     -0.000
lattice_vector      -7.8363193      13.57134925      0.00
lattice_vector      0.0000      0.0000     99.83654525
atom_frac 0.03390113 0.06776249 0.02599158 W
atom_frac 0.16776275 0.13544124 0.04192759 S
atom_frac 0.16757437 0.13523101 0.01002570 S
atom_frac 0.03585450 0.26906185 0.02597307 W
atom_frac 0.17314156 0.34094700 0.04189872 S
atom_frac 0.17295271 0.34073552 0.01001621 S
atom_frac 0.03585681 0.46679431 0.02595489 W
atom_frac 0.17314393 0.53229448 0.04188070 S
atom_frac 0.17295455 0.53208277 0.00999888 S
atom_frac 0.03390411 0.66614290 0.02593666 W
atom_frac 0.16776746 0.73242446 0.04187252 S
atom_frac 0.16757789 0.73221313 0.00997092 S
atom_frac 0.03333234 0.86666867 0.02591830 W
atom_frac 0.16723577 0.93366954 0.04184546 S
atom_frac 0.16704669 0.93345908 0.00996125 S
atom_frac 0.23385365 0.06775292 0.02597847 W
atom_frac 0.36718051 0.13501723 0.04193825 S
atom_frac 0.36699029 0.13480669 0.00998865 S
atom_frac 0.23515702 0.27031765 0.02595989 W
atom_frac 0.36788621 0.34093445 0.04188556 S
atom_frac 0.36769647 0.34072304 0.01000368 S
atom_frac 0.24658267 0.47328062 0.02594041 W
atom_frac 0.23516404 0.66482371 0.02592346 W
atom_frac 0.36789102 0.72703998 0.04184989 S
atom_frac 0.36770132 0.72682777 0.00996802 S
atom_frac 0.23385435 0.86608815 0.02590507 W
atom_frac 0.36718237 0.93225343 0.04186476 S
atom_frac 0.36699196 0.93204194 0.00991547 S
atom_frac 0.43303758 0.06650627 0.02596524 W
atom_frac 0.56655604 0.13331655 0.04192911 S
atom_frac 0.56636617 0.13310562 0.00997144 S
atom_frac 0.43319668 0.26904098 0.02594686 W
atom_frac 0.56618354 0.33397856 0.04190739 S
atom_frac 0.56599319 0.33376707 0.00995669 S
atom_frac 0.42669332 0.47327010 0.02592852 W
atom_frac 0.55922752 0.53227538 0.04185518 S
atom_frac 0.55903767 0.53206334 0.00997340 S
atom_frac 0.42669267 0.65338927 0.02591191 W
atom_frac 0.55922477 0.72702609 0.04183762 S
atom_frac 0.55903451 0.72681370 0.00995503 S
atom_frac 0.43319759 0.86412605 0.02589195 W
atom_frac 0.56618308 0.93228165 0.04185221 S
atom_frac 0.56599367 0.93207034 0.00990157 S
atom_frac 0.63306625 0.06613356 0.02595201 W
atom_frac 0.76684185 0.13330590 0.04191597 S
atom_frac 0.76665287 0.13309543 0.00995823 S
atom_frac 0.63306675 0.26689339 0.02593370 W
atom_frac 0.76684312 0.33359716 0.04189764 S
atom_frac 0.76665390 0.33338625 0.00993994 S
atom_frac 0.63092378 0.46676511 0.02591557 W
atom_frac 0.76514864 0.53297619 0.04187537 S
atom_frac 0.76495890 0.53276449 0.00992587 S
atom_frac 0.62964611 0.66480419 0.02589739 W
atom_frac 0.76472609 0.73239421 0.04183308 S
atom_frac 0.76453653 0.73218235 0.00993144 S
atom_frac 0.63091690 0.86411305 0.02587889 W
atom_frac 0.76514324 0.93223123 0.04183841 S
atom_frac 0.76495406 0.93202002 0.00988920 S
atom_frac 0.83345577 0.06648532 0.02593880 W
atom_frac 0.96790749 0.13498786 0.04189854 S
atom_frac 0.96771908 0.13477744 0.00994902 S
atom_frac 0.83382277 0.26688325 0.02592049 W
atom_frac 0.96787334 0.33395893 0.04188101 S
atom_frac 0.96768447 0.33374761 0.00993018 S
atom_frac 0.83345926 0.46691658 0.02590218 W
atom_frac 0.96791084 0.53296656 0.04186207 S
atom_frac 0.96772150 0.53275479 0.00991249 S
atom_frac 0.83221648 0.66610361 0.02588394 W
atom_frac 0.96649987 0.73291552 0.04181105 S
atom_frac 0.96631086 0.73270447 0.00992692 S
atom_frac 0.83221414 0.86605732 0.02586548 W
atom_frac 0.96649686 0.93362998 0.04179260 S
atom_frac 0.96630869 0.93341947 0.00990845 S
