# 
# This is the geometry file that corresponds to the current relaxation step.
# If you do not want this file to be written, set the "write_restart_geometry" flag to .false.
#  aims_uuid : D4917CD5-77D9-4A57-A988-25739111C393                                
# 
  set_vacuum_level         0.002315
lattice_vector     15.72847685      0.00000000      0.00000000
lattice_vector     -7.86461685     13.62035640      0.00000000
lattice_vector      0.00000000      0.00000000    103.13570646
atom       0.00231969      0.90598760     51.57011449 W
atom       1.57867912      1.83748147     53.13433440 S
atom       1.57866924      1.83748153     50.00586910 S
atom      -1.56717023      3.63479506     51.57009630 W
atom       0.01251573      4.54673569     53.13624287 S
atom       0.01252153      4.54673924     50.00396361 S
atom      -3.14587585      6.35829514     51.57009671 W
atom      -1.55090488      7.25754978     53.13433412 S
atom      -1.55089610      7.25756224     50.00587501 S
atom      -4.73206306      9.07229959     51.57010030 W
atom      -3.14595983      9.98113793     53.13173602 S
atom      -3.14594987      9.98114277     50.00847865 S
atom      -6.30470187     11.79581573     51.57011023 W
atom      -4.72449837     12.71486694     53.13173945 S
atom      -4.72449756     12.71485494     50.00847214 S
atom       3.14597310      0.92247563     51.57009509 W
atom       4.71850659      1.84271114     53.13241607 S
atom       4.71850728      1.84270266     50.00776769 S
atom       1.59124425      3.66616512     51.57010250 W
atom       3.18667423      4.64131767     53.13216659 S
atom       3.18666138      4.64133521     50.00802965 S
atom       0.03922798      6.35418687     51.57010564 W
atom       1.68156810      7.24803861     53.13216939 S
atom       1.68157679      7.24805020     50.00806373 S
atom      -1.55980228      9.07232012     51.57011226 W
atom       0.02353812      9.97386465     53.13242797 S
atom       0.02354621      9.97386572     50.00781275 S
atom      -3.14601251     11.80366957     51.57011358 W
atom      -1.56756821     12.71487100     53.13175410 S
atom      -1.56756323     12.71485640     50.00846450 S
atom       6.29107632      0.92247624     51.57010805 W
atom       7.85834337      1.83748380     53.13432432 S
atom       7.85833949      1.83747159     50.00585625 S
atom       4.71843929      3.68212510     51.57009147 W
atom       6.25019334      4.64131522     53.13213893 S
atom       6.25018990      4.64131944     50.00803314 S
atom       3.30145127      6.44543283     51.57012558 W
atom       1.61668131      9.05413103     51.57012541 W
atom       3.21328704      9.90096403     53.13216327 S
atom       3.21328093      9.90095205     50.00807821 S
atom       0.01267062     11.79581515     51.57012039 W
atom       1.58881348     12.69547121     53.13432555 S
atom       1.58880684     12.69545294     50.00588898 S
atom       9.43471804      0.90598262     51.57010046 W
atom      11.00774907      1.81415001     53.13556851 S
atom      11.00774587      1.81413686     50.00459821 S
atom       7.84565929      3.66615299     51.57009174 W
atom       9.42433717      4.54673727     53.13622963 S
atom       9.42433415      4.54673554     50.00393307 S
atom       6.13527993      6.44543412     51.57009770 W
atom       7.75513910      7.24804461     53.13212525 S
atom       7.75512958      7.24805110     50.00804782 S
atom       4.71831946      8.89941732     51.57012494 W
atom       6.22328795      9.90094847     53.13216993 S
atom       6.22327066      9.90094788     50.00804209 S
atom       3.16630315     11.77019777     51.57010832 W
atom       4.71820913     12.69709939     53.13625560 S
atom       4.71820739     12.69708481     50.00394958 S
atom      12.58276279      0.90072313     51.57009181 W
atom      14.15773447      1.81414366     53.13558784 S
atom      14.15775019      1.81413942     50.00460953 S
atom      11.00405406      3.63480571     51.57007938 W
atom      12.58266347      4.54195908     53.13556689 S
atom      12.58267659      4.54196530     50.00460155 S
atom       9.39752047      6.35417737     51.57008537 W
atom      10.98760623      7.25754768     53.13432748 S
atom      10.98761767      7.25755957     50.00585386 S
atom       7.81991805      9.05415424     51.57009483 W
atom       9.41303646      9.97385525     53.13240811 S
atom       9.41304056      9.97386871     50.00779008 S
atom       6.27013546     11.77017788     51.57010487 W
atom       7.84760043     12.69545798     53.13432434 S
atom       7.84760283     12.69545867     50.00589179 S
# 
# What follows is the current estimated Hessian matrix constructed by the BFGS algorithm.
# This is NOT the true Hessian matrix of the system.
# If you do not want this information here, switch it off using the "hessian_to_restart_geometry" keyword.
# 
trust_radius             0.0002651106
hessian_file
