# 
# This is the geometry file that corresponds to the current relaxation step.
# If you do not want this file to be written, set the "write_restart_geometry" flag to .false.
#  aims_uuid : 70EACB85-5CD0-4A33-A8F0-E24363CBAA21                                
# 
  set_vacuum_level        52.830000
lattice_vector      3.25990881     -0.00223594     -0.00304941
lattice_vector     -1.62839480      2.82416840      0.00132474
lattice_vector     -0.00228857      0.00318423    100.31472106
atom       0.00040941      0.94112267      2.66452354 W
atom       1.63251165      1.88111073      4.32817280 Se
atom       1.62940475      1.88086845      0.99770343 Se
# 
# What follows is the current estimated Hessian matrix constructed by the BFGS algorithm.
# This is NOT the true Hessian matrix of the system.
# If you do not want this information here, switch it off using the "hessian_to_restart_geometry" keyword.
# 
trust_radius             0.0001136560
hessian_file
