# 
# This is the geometry file that corresponds to the geometry input
# The geometry is given in its center cell.
#  aims_uuid : 4E5FADB1-E3D9-4843-A35F-5E22ACC2CF92                                                    
# 
lattice_vector      3.18000000      0.00000000      0.00000000
lattice_vector     -1.59000000      2.75396078      0.00000000
lattice_vector      0.00000000      0.00000000    100.00000000
atom      -1.58999688      0.91837974      3.07250004 Mo
atom       1.58999793     -0.91760016      4.63511102 S
atom       1.58999796     -0.91760015      1.50988395 S
# fractional coordinates
atom_frac      -0.33326103      0.33347597      0.03072500 Mo
atom_frac       0.33340290     -0.33319289      0.04635111 S
atom_frac       0.33340291     -0.33319289      0.01509884 S
