# 
# This is the geometry file that corresponds to the current relaxation step.
# If you do not want this file to be written, set the "write_restart_geometry" flag to .false.
#  aims_uuid : 509929ED-56DF-445E-A3EF-6DA17201C032                                
# 
  set_vacuum_level        52.746911
lattice_vector     16.29568820      0.00000000      0.00000000
lattice_vector     -8.14028310     14.11790945      0.00000000
lattice_vector      0.00000000      0.00000000    100.31494303
atom_frac       0.03376382      0.06734671      0.02676416 W
atom_frac       0.16811017      0.13623289      0.04319349 Se
atom_frac       0.16660760      0.13321594      0.01003924 Se
atom_frac       0.03466011      0.26818256      0.02674964 W
atom_frac       0.17372810      0.34045900      0.04283535 Se
atom_frac       0.16666707      0.33501486      0.00975427 Se
atom_frac       0.03467866      0.46646023      0.02675172 W
atom_frac       0.17376943      0.53327644      0.04283820 Se
atom_frac       0.16666217      0.53165315      0.00975436 Se
atom_frac       0.03376667      0.66639449      0.02676554 W
atom_frac       0.16812025      0.73188311      0.04319419 Se
atom_frac       0.16661052      0.73339180      0.01004002 Se
atom_frac       0.03333978      0.86665970      0.02676847 W
atom_frac       0.16694363      0.93347405      0.04334643 Se
atom_frac       0.16694155      0.93347022      0.01020165 Se
atom_frac       0.23360092      0.06734794      0.02676522 W
atom_frac       0.36645922      0.13478788      0.04343217 Se
atom_frac       0.36729644      0.13378412      0.01026132 Se
atom_frac       0.23448875      0.26895429      0.02631532 W
atom_frac       0.36671978      0.34049157      0.04283719 Se
atom_frac       0.36834688      0.33501418      0.00975375 Se
atom_frac       0.24233670      0.47115656      0.02571098 W
atom_frac       0.36665822      0.53334393      0.00811415 Se
atom_frac       0.23449443      0.66550792      0.02631593 W
atom_frac       0.36672923      0.72624002      0.04283777 Se
atom_frac       0.36834674      0.73334015      0.00975369 Se
atom_frac       0.23360664      0.86623230      0.02676562 W
atom_frac       0.36646384      0.93168056      0.04343194 Se
atom_frac       0.36729649      0.93351971      0.01026149 Se
atom_frac       0.43317588      0.06658208      0.02695569 W
atom_frac       0.56624878      0.13313000      0.04361678 Se
atom_frac       0.56684712      0.13343471      0.01042921 Se
atom_frac       0.43353873      0.26819756      0.02675185 W
atom_frac       0.56581628      0.33418593      0.04350265 Se
atom_frac       0.56691746      0.33308432      0.01026825 Se
atom_frac       0.42882561      0.47116311      0.02571035 W
atom_frac       0.55949814      0.53327939      0.04283718 Se
atom_frac       0.56497858      0.53164907      0.00975361 Se
atom_frac       0.42884152      0.65766863      0.02571013 W
atom_frac       0.55953654      0.72627383      0.04283490 Se
atom_frac       0.56498186      0.73333336      0.00975343 Se
atom_frac       0.43354232      0.86532243      0.02675135 W
atom_frac       0.56582852      0.93165278      0.04350080 Se
atom_frac       0.56691643      0.93385053      0.01026641 Se
atom_frac       0.63315857      0.06630408      0.02701596 W
atom_frac       0.76687469      0.13312868      0.04361547 Se
atom_frac       0.76657031      0.13343465      0.01042810 Se
atom_frac       0.63315635      0.26684461      0.02701719 W
atom_frac       0.76687384      0.33375521      0.04361694 Se
atom_frac       0.76656936      0.33315599      0.01042945 Se
atom_frac       0.63179613      0.46646233      0.02675184 W
atom_frac       0.76521100      0.53354407      0.04343217 Se
atom_frac       0.76621343      0.53270410      0.01026136 Se
atom_frac       0.63103367      0.66550701      0.02631506 W
atom_frac       0.76376207      0.73188997      0.04319307 Se
atom_frac       0.76677785      0.73339122      0.01003906 Se
atom_frac       0.63180970      0.86533650      0.02674921 W
atom_frac       0.76521958      0.93168908      0.04343009 Se
atom_frac       0.76622124      0.93352112      0.01025887 Se
atom_frac       0.83341932      0.06658089      0.02695332 W
atom_frac       0.96831173      0.13477814      0.04343046 Se
atom_frac       0.96647968      0.13377721      0.01025906 Se
atom_frac       0.83369901      0.26684357      0.02701611 W
atom_frac       0.96835486      0.33417608      0.04350127 Se
atom_frac       0.96615457      0.33308658      0.01026716 Se
atom_frac       0.83341837      0.46682583      0.02695574 W
atom_frac       0.96832192      0.53354167      0.04343226 Se
atom_frac       0.96648133      0.53270557      0.01026171 Se
atom_frac       0.83264760      0.66639670      0.02676507 W
atom_frac       0.96652569      0.73305779      0.04334631 Se
atom_frac       0.96652908      0.73305947      0.01020159 Se
atom_frac       0.83264779      0.86623410      0.02676403 W
atom_frac       0.96652416      0.93347469      0.04334547 Se
atom_frac       0.96652951      0.93346910      0.01020073 Se
# 
# What follows is the current estimated Hessian matrix constructed by the BFGS algorithm.
# This is NOT the true Hessian matrix of the system.
# If you do not want this information here, switch it off using the "hessian_to_restart_geometry" keyword.
# 
