# 
# This is the geometry file that corresponds to the current relaxation step.
# If you do not want this file to be written, set the "write_restart_geometry" flag to .false.
#  aims_uuid : D5DF0535-6575-4DCC-A4D5-F70D82239B05                                
# 
  set_vacuum_level       103.343980
lattice_vector     16.35742505      0.00000000      0.00000000
lattice_vector     -8.17073830     14.17072870      0.00000000
lattice_vector      0.00000000      0.00000000    103.34910518
atom       0.00152634      0.93921697     51.70054864 W
atom       1.65060515      1.90595451     53.36118139 Se
atom       1.62895912      1.89156732     50.01809029 Se
atom      -1.63046075      3.77702546     51.70662679 W
atom       0.02253391      4.73148413     53.36806308 Se
atom      -0.00452280      4.71607672     50.01867506 Se
atom      -3.26884013      6.61112613     51.70080570 W
atom      -1.60711988      7.55620132     53.36137263 Se
atom      -1.63049944      7.54462527     50.01835673 Se
atom      -4.91206095      9.43889548     51.68178316 W
atom      -3.26687731     10.38379670     53.35275207 Se
atom      -3.26684910     10.38364509     50.01227333 Se
atom      -6.54508947     12.27110726     51.68165281 W
atom      -4.90442141     13.22374646     53.35265829 Se
atom      -4.90442103     13.22377699     50.01218104 Se
atom       3.27215265      0.95015117     51.68169258 W
atom       4.90701985      1.92684886     53.33724694 Se
atom       4.90707151      1.88399537     49.99648785 Se
atom       1.64679533      3.79616234     51.68013669 W
atom       3.33025487      4.82129394     53.30177435 Se
atom       3.25932792      4.74272886     49.96706148 Se
atom       0.02662373      6.60650431     51.68035092 W
atom       1.75627298      7.55227277     53.30204848 Se
atom       1.65209442      7.53006994     49.96705483 Se
atom      -1.62235605      9.43894622     51.68185022 W
atom       0.04072303     10.36686559     53.33733309 Se
atom       0.00358653     10.38827630     49.99657005 Se
atom      -3.26557049     12.27698163     51.68225935 W
atom      -1.62614426     13.22377298     53.35277029 Se
atom      -1.62603977     13.22381748     50.01230184 Se
atom       6.54130257      0.95020865     51.68178504 W
atom       8.16342985      1.90617911     53.36139301 Se
atom       8.18511507      1.89165493     50.01837009 Se
atom       4.90836888      3.80855548     51.63655398 W
atom       6.48679231      4.82178768     53.30195359 Se
atom       6.55799710      4.74274840     49.96702959 Se
atom       3.38428750      6.67227790     51.57535863 W
atom       4.91001003      7.55363643     49.80138363 Se
atom       1.66958806      9.42577132     51.63661472 W
atom       3.33593771     10.28663223     53.30200914 Se
atom       3.30304837     10.38783760     49.96701134 Se
atom       0.01381339     12.27105048     51.68181583 W
atom       1.65252383     13.19833677     53.36137824 Se
atom       1.65074389     13.22439278     50.01839041 Se
atom       9.81181381      0.93924662     51.70076819 W
atom      11.44492485      1.88235086     53.37954984 Se
atom      11.45207026      1.88656569     50.03482253 Se
atom       8.16969478      3.79642459     51.68027414 W
atom       9.79468975      4.73160619     53.36816592 Se
atom       9.82169920      4.71603035     50.01879685 Se
atom       6.43534394      6.67231889     51.57531660 W
atom       8.06411118      7.55231576     53.30189840 Se
atom       8.16822665      7.52998733     49.96697694 Se
atom       4.91132859      9.31580026     51.57527753 W
atom       6.48785583     10.28708294     53.30167200 Se
atom       6.52051503     10.38774902     49.96697310 Se
atom       3.29127907     12.25737803     51.68023167 W
atom       4.91348149     13.19754998     53.36800458 Se
atom       4.91332093     13.22873746     50.01862428 Se
atom      13.08536343      0.93556388     51.70663261 W
atom      14.72662198      1.88233613     53.37937990 Se
atom      14.71925592      1.88658282     50.03468859 Se
atom      11.44696182      3.77705082     51.70673901 W
atom      13.08734862      4.72530440     53.37952382 Se
atom      13.08723900      4.71699019     50.03478570 Se
atom       9.79306213      6.60657437     51.68029704 W
atom      11.42752766      7.55623465     53.36131917 Se
atom      11.45087842      7.54462658     50.01832839 Se
atom       8.15350320      9.42581046     51.63648865 W
atom       9.78293837     10.36695569     53.33718602 Se
atom       9.82007593     10.38824975     49.99645548 Se
atom       6.53499310     12.25748084     51.68002132 W
atom       8.17440134     13.19845315     53.36112701 Se
atom       8.17610207     13.22440832     50.01807306 Se
# 
# What follows is the current estimated Hessian matrix constructed by the BFGS algorithm.
# This is NOT the true Hessian matrix of the system.
# If you do not want this information here, switch it off using the "hessian_to_restart_geometry" keyword.
# 
trust_radius             0.0026214203
hessian_file
