# 
# This is the geometry file that corresponds to the current relaxation step.
# If you do not want this file to be written, set the "write_restart_geometry" flag to .false.
#  aims_uuid : 1C9507C5-283E-4C15-AE24-7D14E7389DA7                                
# 
  set_vacuum_level       103.343980
lattice_vector     16.35742505      0.00000000      0.00000000
lattice_vector     -8.17073830     14.17072870      0.00000000
lattice_vector      0.00000000      0.00000000    103.34910518
atom       0.00163909      0.93918574     51.70070808 W
atom       1.65064171      1.90597091     53.36122309 Se
atom       1.62894798      1.89150537     50.01814295 Se
atom      -1.63042686      3.77707580     51.70685093 W
atom       0.02269370      4.73157276     53.36809566 Se
atom      -0.00456793      4.71606610     50.01868781 Se
atom      -3.26885492      6.61125359     51.70095181 W
atom      -1.60709911      7.55624878     53.36144151 Se
atom      -1.63056011      7.54462898     50.01844505 Se
atom      -4.91210324      9.43893955     51.68175636 W
atom      -3.26691163     10.38374864     53.35271341 Se
atom      -3.26685224     10.38367412     50.01233313 Se
atom      -6.54508009     12.27109763     51.68169253 W
atom      -4.90447001     13.22377007     53.35262213 Se
atom      -4.90441654     13.22375851     50.01223283 Se
atom       3.27214206      0.95019174     51.68172472 W
atom       4.90700973      1.92693071     53.33716977 Se
atom       4.90709086      1.88388078     49.99649275 Se
atom       1.64665673      3.79619321     51.68012022 W
atom       3.33026294      4.82133853     53.30169195 Se
atom       3.25919508      4.74262697     49.96693194 Se
atom       0.02655862      6.60639326     51.68037151 W
atom       1.75633253      7.55224683     53.30197537 Se
atom       1.65194949      7.52996648     49.96693743 Se
atom      -1.62233546      9.43895873     51.68185430 W
atom       0.04081054     10.36679812     53.33721498 Se
atom       0.00350850     10.38832617     49.99654327 Se
atom      -3.26558181     12.27698624     51.68253439 W
atom      -1.62612175     13.22377469     53.35274436 Se
atom      -1.62604935     13.22380036     50.01234281 Se
atom       6.54128656      0.95022978     51.68184526 W
atom       8.16336267      1.90615142     53.36141537 Se
atom       8.18512849      1.89161143     50.01839332 Se
atom       4.90836542      3.80865807     51.63641008 W
atom       6.48675299      4.82184499     53.30188730 Se
atom       6.55817196      4.74263835     49.96686807 Se
atom       3.38424502      6.67224023     51.57510290 W
atom       4.91003151      7.55363713     49.80095135 Se
atom       1.66969754      9.42573127     51.63645893 W
atom       3.33595739     10.28657428     53.30192233 Se
atom       3.30305545     10.38803930     49.96684868 Se
atom       0.01382522     12.27105359     51.68186083 W
atom       1.65246547     13.19828707     53.36137205 Se
atom       1.65072827     13.22442148     50.01839414 Se
atom       9.81174532      0.93920483     51.70096243 W
atom      11.44492513      1.88234130     53.37968217 Se
atom      11.45207059      1.88657822     50.03497982 Se
atom       8.16981059      3.79642474     51.68034531 W
atom       9.79453393      4.73173768     53.36820001 Se
atom       9.82171861      4.71600212     50.01878481 Se
atom       6.43538496      6.67234085     51.57504444 W
atom       8.06406932      7.55229069     53.30183045 Se
atom       8.16837549      7.52990018     49.96680437 Se
atom       4.91137555      9.31583795     51.57499160 W
atom       6.48782334     10.28705422     53.30160047 Se
atom       6.52051796     10.38792879     49.96680482 Se
atom       3.29134184     12.25749417     51.68029154 W
atom       4.91350082     13.19737708     53.36803762 Se
atom       4.91331844     13.22875370     50.01860520 Se
atom      13.08537341      0.93554298     51.70679873 W
atom      14.72659480      1.88230439     53.37955441 Se
atom      14.71925879      1.88656513     50.03486906 Se
atom      11.44693591      3.77707248     51.70694880 W
atom      13.08733538      4.72529107     53.37970443 Se
atom      13.08725424      4.71697612     50.03500744 Se
atom       9.79314173      6.60644922     51.68032455 W
atom      11.42748263      7.55626518     53.36139031 Se
atom      11.45097071      7.54460707     50.01837899 Se
atom       8.15339325      9.42574539     51.63633463 W
atom       9.78285934     10.36687405     53.33709075 Se
atom       9.82019291     10.38831743     49.99642633 Se
atom       6.53492457     12.25763412     51.68003890 W
atom       8.17440552     13.19839243     53.36118201 Se
atom       8.17614387     13.22443803     50.01811347 Se
# 
# What follows is the current estimated Hessian matrix constructed by the BFGS algorithm.
# This is NOT the true Hessian matrix of the system.
# If you do not want this information here, switch it off using the "hessian_to_restart_geometry" keyword.
# 
trust_radius             0.0005946459
hessian_file
