# 
# This is the geometry file that corresponds to the current relaxation step.
# If you do not want this file to be written, set the "write_restart_geometry" flag to .false.
#  aims_uuid : 6BB4062E-7CCA-4004-AE9D-577BA17049AB                                
# 
  set_vacuum_level         0.002315
lattice_vector     15.72847685      0.00000000      0.00000000
lattice_vector     -7.86461685     13.62035640      0.00000000
lattice_vector      0.00000000      0.00000000    103.13570646
atom       0.00000045      0.90735892     51.60599586 W
atom       1.58742114      1.83462016     53.15828078 S
atom       1.56800616      1.82416400     50.03386234 S
atom      -1.56959792      3.64149773     51.61276030 W
atom       0.01841647      4.58591497     53.14972747 S
atom      -0.00673649      4.53509154     50.02398183 S
atom      -3.13431834      6.37661030     51.60847851 W
atom      -1.49715175      7.35273022     53.12238103 S
atom      -1.58602669      7.27552768     49.99094709 S
atom      -4.70733130      9.07505316     51.58842389 W
atom      -3.05445138      9.98806128     53.10945172 S
atom      -3.13669217      9.96261821     49.98565941 S
atom      -6.29313055     11.79615978     51.58735720 W
atom      -4.69368301     12.69710061     53.13568792 S
atom      -4.72483613     12.71511496     50.01434416 S
atom       3.15149262      0.91234042     51.58739390 W
atom       4.72458372      1.83284150     53.14401491 S
atom       4.72636561      1.81762987     50.02090854 S
atom       1.58229294      3.65942068     51.58767815 W
atom       3.18357440      4.64220375     53.11831214 S
atom       3.13838114      4.56328282     49.98788213 S
atom       0.01734909      6.38650770     51.54795321 W
atom       1.61585852      7.34126513     53.06732804 S
atom       1.59401426      7.25692442     49.93653254 S
atom      -1.49660350      9.11657146     51.50221046 W
atom       0.00077150      9.98693842     49.87572801 S
atom      -3.12185724     11.78974355     51.54909858 W
atom      -1.52778403     12.63214151     53.10946606 S
atom      -1.54691235     12.71614158     49.98564964 S
atom       6.30110895      0.89969823     51.58846624 W
atom       7.85097119      1.80903419     53.17429416 S
atom       7.87269220      1.82490652     50.04384944 S
atom       4.71738820      3.66330712     51.56550497 W
atom       6.23933833      4.61653828     53.13397674 S
atom       6.31055950      4.55580464     50.00415707 S
atom       3.20603597      6.41146270     51.49834649 W
atom       4.72836254      7.25768309     49.89410295 S
atom       1.53769080      9.09970253     51.45819673 W
atom       3.09969162      9.91124992     53.06728520 S
atom       3.16172421      9.97233926     49.93647224 S
atom       0.00588225     11.71890950     51.50217336 W
atom       1.53317817     12.60126930     53.12233113 S
atom       1.55558251     12.71687244     49.99092189 S
atom       9.42456383      0.88680641     51.60846898 W
atom      10.99776104      1.79217125     53.18594813 S
atom      11.00290646      1.81868258     50.05781852 S
atom       7.85711016      3.64356689     51.61210720 W
atom       9.42428286      4.54679250     53.19094763 S
atom       9.44211924      4.53645784     50.05833651 S
atom       6.22540041      6.39345765     51.52109616 W
atom       7.77126270      7.26995319     53.13391135 S
atom       7.85943167      7.23858655     50.00412366 S
atom       4.70005212      8.99922198     51.49827548 W
atom       6.22105671      9.90328750     53.11824335 S
atom       6.26679401      9.98187142     49.98777327 S
atom       3.12729151     11.77293725     51.54790404 W
atom       4.68720333     12.67234615     53.14965738 S
atom       4.71861166     12.71956802     50.02391807 S
atom      12.57571656      0.89944878     51.61272322 W
atom      14.15767957      1.81414712     53.17675773 S
atom      14.14903049      1.81915979     50.04969542 S
atom      11.00845775      3.63221682     51.63106459 W
atom      12.59666945      4.56153555     53.18596013 S
atom      12.57629708      4.54380851     50.05784642 S
atom       9.42286426      6.35556469     51.61207244 W
atom      11.00859332      7.27819100     53.17424951 S
atom      11.00571738      7.25139628     50.04382912 S
atom       7.83578462      9.06458746     51.56543207 W
atom       9.42466291      9.97360972     53.14396369 S
atom       9.43874398      9.97967597     50.02084794 S
atom       6.27155603     11.78136427     51.58759649 W
atom       7.85447791     12.68935187     53.15823244 S
atom       7.85385043     12.71143351     50.03382992 S
# 
# What follows is the current estimated Hessian matrix constructed by the BFGS algorithm.
# This is NOT the true Hessian matrix of the system.
# If you do not want this information here, switch it off using the "hessian_to_restart_geometry" keyword.
# 
trust_radius             0.0004304278
hessian_file
