#=======================================================
# FHI-aims file: geometry_mos2.in
# Created using the Atomic Simulation Environment (ASE)
# Wed Jan 26 15:30:07 2022
#=======================================================
#lattice_vector 16.3574250499999998 -0.0112194000000000 -0.0153012000000000 
#lattice_vector -8.1707383000000000 14.1707286999999997 0.0066471000000000 
#lattice_vector -0.0023578059486359 0.0032805479536764 103.3491051833604928 
lattice_vector 16.3574250499999998 -0.000000000 -0.00000000 
lattice_vector -8.1707383000000000 14.1707286999999997 0.000
lattice_vector -0.00 0.0000       103.3491051833604928 
atom -0.0006811830485621 0.9460116435360019 51.6745020318731605 W
atom 1.6372264069514380 1.8892877035360016 53.3474167718731564 Se
atom 1.6340611769514377 1.8890839235360022 49.9983605418731614 Se
atom -1.6348288430485625 3.7801573835360021 51.6758314518731581 W
atom 0.0030787469514377 4.7234334435360026 53.3487461918731540 Se
atom -0.0000864830485626 4.7232296635360029 49.9996899618731589 Se
atom -3.2689765030485622 6.6143031235360024 51.6771608718731557 W
atom -1.6310689130485625 7.5575791835360029 53.3500756118731658 Se
atom -1.6342341430485614 7.5573754035360023 50.0010193818731707 Se
atom -4.9031241630485631 9.4484488635360062 51.6784902918731603 W
atom -3.2652165730485629 10.3917249235360067 53.3514050318731563 Se
atom -3.2683818030485638 10.3915211435360053 50.0023488018731612 Se
atom -6.5372718230485622 12.2825946035360047 51.6798197118731579 W
atom -4.8993642330485621 13.2258706635360053 53.3527344518731539 Se
atom -4.9025294630485625 13.2256668835360056 50.0036782218731588 Se
atom 3.2708038269514379 0.9437677635360019 51.6714417918731570 W
atom 4.9087114169514381 1.8870438235360016 53.3443565318731601 Se
atom 4.9055461869514376 1.8868400435360022 49.9953003018731650 Se
atom 1.6366561669514375 3.7779135035360012 51.6727712118731617 W
atom 3.2745637569514381 4.7211895635360026 53.3456859518731576 Se
atom 3.2713985269514372 4.7209857835360030 49.9966297218731697 Se
atom 0.0025085069514379 6.6120592435360024 51.6741006318731593 W
atom 1.6404160969514372 7.5553353035360029 53.3470153718731552 Se
atom 1.6372508669514374 7.5551315235360024 49.9979591418731601 Se
atom -1.6316391530485628 9.4462049835360062 51.6754300518731569 W
atom 0.0062684369514376 10.3894810435360068 53.3483447918731670 Se
atom 0.0031032069514369 10.3892772635360053 49.9992885618731648 Se
atom -3.2657868130485621 12.2803507235360048 51.6767594718731615 W
atom -1.6278792230485630 13.2236267835360053 53.3496742118731575 Se
atom -1.6310444530485628 13.2234230035360056 50.0006179818731695 Se
atom 6.5422888369514380 0.9415238835360019 51.6683815518731606 W
atom 8.1801964269514382 1.8847999435360017 53.3412962918731566 Se
atom 8.1770311969514378 1.8845961635360022 49.9922400618731615 Se
atom 4.9081411769514380 3.7756696235360012 51.6697109718731582 W
atom 6.5460487669514382 4.7189456835360026 53.3426257118731542 Se
atom 6.5428835369514386 4.7187419035360030 49.9935694818731591 Se
atom 3.2739935169514385 6.6098153635360015 51.6710403918731558 W
atom 4.9119011069514391 7.5530914235360012 53.3439551318731660 Se
atom 4.9087358769514386 7.5528876435360024 49.9948989018731709 Se
atom 1.6398458569514374 9.4439611035360063 51.6723698118731605 W
atom 3.2777534469514369 10.3872371635360068 53.3452845518731564 Se
atom 3.2745882169514369 10.3870333835360036 49.9962283218731613 Se
atom 0.0056981969514379 12.2781068435360048 51.6736992318731581 W
atom 1.6436057869514371 13.2213829035360053 53.3466139718731540 Se
atom 1.6404405569514382 13.2211791235360057 49.9975577418731589 Se
atom 9.8137738469514399 0.9392800035360019 51.6653213118731571 W
atom 11.4516814369514393 1.8825560635360017 53.3382360518731602 Se
atom 11.4485162069514388 1.8823522835360023 49.9891798218731651 Se
atom 8.1796261869514399 3.7734257435360012 51.6666507318731618 W
atom 9.8175337769514393 4.7167018035360027 53.3395654718731578 Se
atom 9.8143685469514370 4.7164980235360030 49.9905092418731698 Se
atom 6.5454785269514391 6.6075714835360015 51.6679801518731594 W
atom 8.1833861169514375 7.5508475435360012 53.3408948918731554 Se
atom 8.1802208869514388 7.5506437635360024 49.9918386618731603 Se
atom 4.9113308669514373 9.4417172235360063 51.6693095718731570 W
atom 6.5492384569514392 10.3849932835360068 53.3422243118731600 Se
atom 6.5460732269514370 10.3847895035360036 49.9931680818731650 Se
atom 3.2771832069514382 12.2758629635360048 51.6706389918731617 W
atom 4.9150907969514384 13.2191390235360053 53.3435537318731576 Se
atom 4.9119255669514397 13.2189352435360057 49.9944975018731697 Se
atom 13.0852588569514392 0.9370361235360019 51.6622610718731607 W
atom 14.7231664469514385 1.8803121835360022 53.3351758118731567 Se
atom 14.7200012169514380 1.8801084035360023 49.9861195818731616 Se
atom 11.4511111969514392 3.7711818635360013 51.6635904918731583 W
atom 13.0890187869514385 4.7144579235360018 53.3365052318731543 Se
atom 13.0858535569514363 4.7142541435360030 49.9874490018731592 Se
atom 9.8169635369514392 6.6053276035360016 51.6649199118731559 W
atom 11.4548711269514367 7.5486036635360012 53.3378346518731661 Se
atom 11.4517058969514380 7.5483998835360016 49.9887784218731639 Se
atom 8.1828158769514410 9.4394733435360063 51.6662493318731606 W
atom 9.8207234669514385 10.3827494035360068 53.3391640718731566 Se
atom 9.8175582369514380 10.3825456235360036 49.9901078418731615 Se
atom 6.5486682169514383 12.2736190835360031 51.6675787518731582 W
atom 8.1865758069514385 13.2168951435360036 53.3404934918731541 Se
atom 8.1834105769514380 13.2166913635360022 49.9914372618731591 Se
