# 
# This is the geometry file that corresponds to the current relaxation step.
# If you do not want this file to be written, set the "write_restart_geometry" flag to .false.
#  aims_uuid : 14053977-9A2C-40A1-A9DA-1D39102A7C9E                                
# 
  set_vacuum_level       103.343980
lattice_vector     16.35742505      0.00000000      0.00000000
lattice_vector     -8.17073830     14.17072870      0.00000000
lattice_vector      0.00000000      0.00000000    103.34910518
atom      -0.00052559      0.94043562     51.66994341 W
atom       1.63551212      1.88524372     53.34432384 Se
atom       1.63562802      1.88524870     49.99575674 Se
atom      -1.63466452      3.77455932     51.66990838 W
atom       0.00136028      4.71935645     53.34429885 Se
atom       0.00147009      4.71943374     49.99573138 Se
atom      -3.26881899      6.60869230     51.66994436 W
atom      -1.63278930      7.55347638     53.34436475 Se
atom      -1.63268326      7.55359521     49.99579393 Se
atom      -4.90297861      9.44284212     51.67001389 W
atom      -3.26693938     10.38765566     53.34441306 Se
atom      -3.26682329     10.38770431     49.99584406 Se
atom      -6.53711729     12.27700655     51.67002130 W
atom      -4.90107758     13.22183302     53.34438753 Se
atom      -4.90096603     13.22182905     49.99582068 Se
atom       3.27098081      0.94040832     51.67011260 W
atom       4.90707529      1.88527898     53.34432940 Se
atom       4.90703263      1.88521549     49.99576497 Se
atom       1.63682005      3.77455836     51.67004918 W
atom       3.27292008      4.71938904     53.34431382 Se
atom       3.27289009      4.71940475     49.99574727 Se
atom       0.00267320      6.60871354     51.67008756 W
atom       1.63876486      7.55351440     53.34437281 Se
atom       1.63873896      7.55355883     49.99580291 Se
atom      -1.63146407      9.44285401     51.67018520 W
atom       0.00462127     10.38768770     53.34442394 Se
atom       0.00458621     10.38766452     49.99585732 Se
atom      -3.26560555     12.27698351     51.67016607 W
atom      -1.62952702     13.22187599     53.34439240 Se
atom      -1.62955675     13.22178795     49.99582836 Se
atom       6.54247212      0.94041767     51.67003575 W
atom       8.17859493      1.88531317     53.34416601 Se
atom       8.17846035      1.88519826     49.99559941 Se
atom       4.90831004      3.77455707     51.66999204 W
atom       6.54443546      4.71942379     53.34415958 Se
atom       6.54430308      4.71937674     49.99559516 Se
atom       3.27415572      6.60870810     51.67004912 W
atom       4.91029137      7.55354998     53.34421512 Se
atom       4.91015529      7.55353158     49.99565088 Se
atom       1.64002345      9.44286088     51.67011434 W
atom       3.27614987     10.38772048     53.34427606 Se
atom       3.27601780     10.38765098     49.99571382 Se
atom       0.00587827     12.27699861     51.67011258 W
atom       1.64200191     13.22191342     53.34424386 Se
atom       1.64187670     13.22176012     49.99568269 Se
atom       9.81393742      0.94042915     51.66983630 W
atom      11.45002145      1.88528726     53.34405748 Se
atom      11.45000626      1.88521888     49.99548622 Se
atom       8.17978489      3.77458572     51.66980128 W
atom       9.81587981      4.71939948     53.34404312 Se
atom       9.81585458      4.71940470     49.99547497 Se
atom       6.54565577      6.60872729     51.66984206 W
atom       8.18172316      7.55353138     53.34410220 Se
atom       8.18170058      7.55356380     49.99552395 Se
atom       4.91150997      9.44285206     51.66991546 W
atom       6.54758128     10.38770690     53.34415560 Se
atom       6.54755382     10.38768415     49.99558515 Se
atom       3.27734901     12.27700037     51.66993038 W
atom       4.91343801     13.22188473     53.34414178 Se
atom       4.91340677     13.22179183     49.99557013 Se
atom      13.08541659      0.94041172     51.66981681 W
atom      14.72143627      1.88523575     53.34416195 Se
atom      14.72156618      1.88526509     49.99559317 Se
atom      11.45126362      3.77456006     51.66976761 W
atom      13.08728724      4.71934532     53.34414196 Se
atom      13.08741705      4.71945226     49.99557590 Se
atom       9.81711147      6.60872024     51.66981363 W
atom      11.45314452      7.55347874     53.34420080 Se
atom      11.45327608      7.55360986     49.99563533 Se
atom       8.18297709      9.44285762     51.66988549 W
atom       9.81900038     10.38765781     53.34424717 Se
atom       9.81913141     10.38772983     49.99567748 Se
atom       6.54883748     12.27701350     51.66988587 W
atom       8.18485144     13.22183069     53.34422719 Se
atom       8.18497988     13.22183617     49.99565783 Se
# 
# What follows is the current estimated Hessian matrix constructed by the BFGS algorithm.
# This is NOT the true Hessian matrix of the system.
# If you do not want this information here, switch it off using the "hessian_to_restart_geometry" keyword.
# 
trust_radius             0.0006711082
hessian_file
