# 
# This is the geometry file that corresponds to the current relaxation step.
# If you do not want this file to be written, set the "write_restart_geometry" flag to .false.
#  aims_uuid : CF1796EC-75B0-4D17-A14E-73EDB6E53D8C                                
# 
  set_vacuum_level        52.613254
lattice_vector     16.41708800      0.00000000      0.00000000
lattice_vector     -8.21125790     14.21583190      0.00000000
lattice_vector      0.00000000      0.00000000     99.89650741
atom       0.07927304      1.07300154      2.66497755 Mo
atom       1.73870159      2.10103080      4.32208295 Se
atom       1.74631035      2.10627048      1.01655050 Se
atom      -1.54828548      3.89789693      2.66133246 Mo
atom       0.08424228      4.88399357      4.34128869 Se
atom       0.09648566      4.88483173      0.98726405 Se
atom      -3.26855797      6.72995392      2.66020065 Mo
atom      -1.66310424      7.69975762      4.35005701 Se
atom      -1.66084350      7.70245165      0.97523800 Se
atom      -4.91621997      9.57009413      2.66202085 Mo
atom      -3.28820166     10.53495825      4.34441356 Se
atom      -3.28530968     10.54051981      0.98641234 Se
atom      -6.54302721     12.41725697      2.66564720 Mo
atom      -4.90431776     13.39377303      4.33877079 Se
atom      -4.90180540     13.39653718      0.99872426 Se
atom       3.36029585      1.09436346      2.67151783 Mo
atom       4.99626728      2.02047918      4.37128641 Se
atom       5.00394459      2.00513026      0.97447529 Se
atom       1.78576612      4.05240318      2.67363034 Mo
atom       3.47732390      5.05677776      4.31782219 Se
atom       3.54101812      5.11452882      1.09975102 Se
atom      -0.00960462      6.78529230      2.66359771 Mo
atom       1.58636828      7.72533498      4.33485303 Se
atom       1.58522869      7.72529939      0.99427032 Se
atom      -1.64947964      9.59270854      2.66522883 Mo
atom      -0.01812548     10.54775424      4.35515444 Se
atom      -0.01727632     10.55157055      0.98032175 Se
atom      -3.26384129     12.43266977      2.66898940 Mo
atom      -1.61803851     13.37055401      4.35315310 Se
atom      -1.61673732     13.37334172      0.98989529 Se
atom       6.62411100      1.04133771      2.67386208 Mo
atom       8.30712089      1.93735547      4.34973009 Se
atom       8.30268896      1.93194333      0.99061827 Se
atom       5.12130900      3.88694559      2.66184666 Mo
atom       6.74362934      4.74981516      4.37839662 Se
atom       6.74198146      4.74725800      0.95286468 Se
atom       4.82483291      7.33802469      4.23181538 Se
atom       4.84226643      7.42198335      1.01372857 Se
atom       1.60186215      9.57697534      2.66641629 Mo
atom       3.30023028     10.43552034      4.34345347 Se
atom       3.29551595     10.44670792      0.98936959 Se
atom       0.01967133     12.42652412      2.67052253 Mo
atom       1.70085526     13.31954824      4.34928964 Se
atom       1.69980784     13.31988735      0.99066636 Se
atom       9.94122663      0.99476297      2.66896664 Mo
atom      11.58074577      1.95922695      4.34453892 Se
atom      11.57799423      1.95436937      0.98644836 Se
atom       8.34267519      3.82502642      2.66555702 Mo
atom       9.96208639      4.80651943      4.34042291 Se
atom       9.95943269      4.80002644      0.98133006 Se
atom       6.67791126      6.58355926      2.66951078 Mo
atom       8.24885410      7.62633435      4.35682788 Se
atom       8.23143467      7.62538044      0.95993428 Se
atom       4.86628827      9.38915239      2.65753184 Mo
atom       6.53170727     10.39662722      4.31474882 Se
atom       6.53259938     10.40585127      1.00918587 Se
atom       3.33250619     12.35339259      2.66950671 Mo
atom       4.97681140     13.31906110      4.34257118 Se
atom       4.97419432     13.31723773      0.99241591 Se
atom      13.21425234      1.01313166      2.66553106 Mo
atom      14.85521298      1.99439870      4.33865302 Se
atom      14.85510339      1.99092066      0.98848816 Se
atom      11.59312349      3.85647129      2.66198120 Mo
atom      13.21532183      4.82835857      4.34015238 Se
atom      13.21603818      4.82743969      0.98154926 Se
atom       9.89366750      6.70556463      2.65723168 Mo
atom      11.51036344      7.67330441      4.34104131 Se
atom      11.51173712      7.67591987      0.97779612 Se
atom       8.21532180      9.50514257      2.65978200 Mo
atom       9.84709573     10.50625101      4.33251791 Se
atom       9.84797932     10.50993765      0.99243533 Se
atom       6.59271720     12.35688936      2.66628548 Mo
atom       8.23713505     13.36175451      4.33226533 Se
atom       8.23750037     13.36232514      0.99902455 Se
# 
# What follows is the current estimated Hessian matrix constructed by the BFGS algorithm.
# This is NOT the true Hessian matrix of the system.
# If you do not want this information here, switch it off using the "hessian_to_restart_geometry" keyword.
# 
trust_radius             0.0006231915
hessian_file
