# 
# This is the geometry file that corresponds to the current relaxation step.
# If you do not want this file to be written, set the "write_restart_geometry" flag to .false.
#  aims_uuid : 360D482C-5C3B-455A-A407-5C9F60DFF580                                
# 
  set_vacuum_level        52.613254
lattice_vector     16.41708800      0.00000000      0.00000000
lattice_vector     -8.21125790     14.21583190      0.00000000
lattice_vector      0.00000000      0.00000000     99.89650741
atom       0.07929875      1.07301452      2.66511882 Mo
atom       1.73867767      2.10103269      4.32225445 Se
atom       1.74636030      2.10618258      1.01672239 Se
atom      -1.54832901      3.89784622      2.66120138 Mo
atom       0.08421086      4.88411709      4.34115270 Se
atom       0.09660128      4.88472589      0.98713520 Se
atom      -3.26851960      6.72991227      2.65997890 Mo
atom      -1.66303870      7.69972254      4.34981363 Se
atom      -1.66089325      7.70247685      0.97499497 Se
atom      -4.91618305      9.57005800      2.66197403 Mo
atom      -3.28816218     10.53485992      4.34439059 Se
atom      -3.28540360     10.54063715      0.98633006 Se
atom      -6.54305222     12.41732323      2.66581648 Mo
atom      -4.90421331     13.39367504      4.33893268 Se
atom      -4.90177451     13.39652120      0.99888815 Se
atom       3.36017878      1.09428020      2.67174673 Mo
atom       4.99625575      2.02050770      4.37139708 Se
atom       5.00393286      2.00503685      0.97467536 Se
atom       1.78565420      4.05241525      2.67370710 Mo
atom       3.47713840      5.05657847      4.31817250 Se
atom       3.54107868      5.11454599      1.10008128 Se
atom      -0.00956142      6.78532250      2.66326248 Mo
atom       1.58655284      7.72519894      4.33435016 Se
atom       1.58506994      7.72542374      0.99370132 Se
atom      -1.64943520      9.59274505      2.66503184 Mo
atom      -0.01804189     10.54767001      4.35496931 Se
atom      -0.01725396     10.55170656      0.98014070 Se
atom      -3.26376816     12.43254520      2.66911560 Mo
atom      -1.61803436     13.37050038      4.35322145 Se
atom      -1.61684054     13.37341870      0.98991781 Se
atom       6.62416800      1.04126686      2.67404944 Mo
atom       8.30717438      1.93742777      4.34979275 Se
atom       8.30262882      1.93198883      0.99070452 Se
atom       5.12129216      3.88694993      2.66192086 Mo
atom       6.74363880      4.74983727      4.37847552 Se
atom       6.74188380      4.74726384      0.95294537 Se
atom       4.82478812      7.33771923      4.23164541 Se
atom       4.84234941      7.42223682      1.01352793 Se
atom       1.60183439      9.57693384      2.66613490 Mo
atom       3.30017140     10.43546038      4.34336749 Se
atom       3.29561219     10.44682732      0.98927595 Se
atom       0.01960688     12.42661500      2.67052414 Mo
atom       1.70083918     13.31947816      4.34930867 Se
atom       1.69982810     13.31988040      0.99064818 Se
atom       9.94118745      0.99477927      2.66904907 Mo
atom      11.58074354      1.95932710      4.34453808 Se
atom      11.57799557      1.95437017      0.98649805 Se
atom       8.34260285      3.82513114      2.66559912 Mo
atom       9.96212984      4.80654743      4.34039285 Se
atom       9.95940454      4.79996156      0.98129845 Se
atom       6.67792949      6.58358940      2.66959534 Mo
atom       8.24903031      7.62636172      4.35681827 Se
atom       8.23138153      7.62545608      0.95998729 Se
atom       4.86637431      9.38922008      2.65756428 Mo
atom       6.53167868     10.39660434      4.31484370 Se
atom       6.53263747     10.40598490      1.00925707 Se
atom       3.33245081     12.35344181      2.66955250 Mo
atom       4.97675808     13.31900233      4.34267825 Se
atom       4.97424426     13.31717002      0.99250421 Se
atom      13.21426453      1.01299382      2.66559857 Mo
atom      14.85514866      1.99452521      4.33869938 Se
atom      14.85511187      1.99084373      0.98853451 Se
atom      11.59306439      3.85647019      2.66193107 Mo
atom      13.21534556      4.82843171      4.34005068 Se
atom      13.21600727      4.82739789      0.98142491 Se
atom       9.89367856      6.70552316      2.65713621 Mo
atom      11.51041900      7.67325954      4.34095116 Se
atom      11.51166280      7.67595984      0.97770512 Se
atom       8.21520728      9.50527180      2.65981025 Mo
atom       9.84719287     10.50614679      4.33258362 Se
atom       9.84801777     10.50997901      0.99253038 Se
atom       6.59280088     12.35701015      2.66644196 Mo
atom       8.23709324     13.36174538      4.33249032 Se
atom       8.23748559     13.36230806      0.99915906 Se
# 
# What follows is the current estimated Hessian matrix constructed by the BFGS algorithm.
# This is NOT the true Hessian matrix of the system.
# If you do not want this information here, switch it off using the "hessian_to_restart_geometry" keyword.
# 
trust_radius             0.0039265673
hessian_file
