# 
# This is the geometry file that corresponds to the current relaxation step.
# If you do not want this file to be written, set the "write_restart_geometry" flag to .false.
#  aims_uuid : 7F17D678-56EC-4BCD-A85D-0430F448261A                                
# 
lattice_vector     16.60000000      0.00000000      0.00000000
lattice_vector     -8.30000000     14.37602170      0.00000000
lattice_vector      0.00000000      0.00000000    100.00000000
atom       0.00070009      0.97982210      2.66500000 Mo
atom       1.66002596      1.95721226      4.32773151 Se
atom       1.66002596      1.95721226      1.00226849 Se
atom      -1.63339981      3.88223562      2.66500000 Mo
atom       0.05624722      4.92860636      4.32594303 Se
atom       0.05624722      4.92860636      1.00405697 Se
atom      -3.26453525      6.70747253      2.66500000 Mo
atom      -1.51355869      7.64756631      4.32596441 Se
atom      -1.51355869      7.64756631      1.00403559 Se
atom      -4.96110841      9.57390518      2.66500000 Mo
atom      -3.28497748     10.52218968      4.32772627 Se
atom      -3.28497748     10.52218968      1.00227373 Se
atom      -6.64001283     12.45920339      2.66500000 Mo
atom      -4.97191547     13.42227260      4.32721505 Se
atom      -4.97191547     13.42227260      1.00278495 Se
atom       3.31932018      0.97979358      2.66500000 Mo
atom       4.97206638      1.94757176      4.33057881 Se
atom       4.97206638      1.94757176      0.99942119 Se
atom       1.66004210      3.90392838      2.66500000 Mo
atom       3.26386608      4.92857089      4.32593945 Se
atom       3.26386608      4.92857089      1.00406055 Se
atom       0.23543290      6.84472632      2.66500000 Mo
atom      -1.59903660      9.54881359      2.66500000 Mo
atom       0.09020682     10.42548269      4.32594779 Se
atom       0.09020682     10.42548269      1.00405221 Se
atom      -3.30179756     12.44789482      2.66500000 Mo
atom      -1.63729556     13.39533423      4.33056651 Se
atom      -1.63729556     13.39533423      0.99943349 Se
atom       6.63713403      0.95673648      2.66500000 Mo
atom       8.29689870      1.91502845      4.33331647 Se
atom       8.29689870      1.91502845      0.99668353 Se
atom       4.95348833      3.88222398      2.66500000 Mo
atom       6.62250151      4.80211902      4.33513348 Se
atom       6.62250151      4.80211902      0.99486652 Se
atom       3.08463586      6.84468829      2.66500000 Mo
atom       4.83354632      7.64758572      4.32596507 Se
atom       4.83354632      7.64758572      1.00403493 Se
atom       1.65993220      9.31214947      2.66500000 Mo
atom       3.22969239     10.42546588      4.32593818 Se
atom       3.22969239     10.42546588      1.00406182 Se
atom       0.02888941     12.41193123      2.66500000 Mo
atom       1.65998786     13.39747745      4.33514235 Se
atom       1.65998786     13.39747745      0.99485765 Se
atom       9.96001029      0.94930537      2.66500000 Mo
atom      11.62313536      1.91503295      4.33331905 Se
atom      11.62313536      1.91503295      0.99668095 Se
atom       8.29210215      3.83819561      2.66500000 Mo
atom       9.96002307      4.79561053      4.33331640 Se
atom       9.96002307      4.79561053      0.99668360 Se
atom       6.58453132      6.70747102      2.66500000 Mo
atom       8.26931281      7.65869547      4.33056462 Se
atom       8.26931281      7.65869547      0.99943538 Se
atom       4.91896294      9.54882868      2.66500000 Mo
atom       6.60491487     10.52220060      4.32771880 Se
atom       6.60491487     10.52220060      1.00228120 Se
atom       3.29108533     12.41191210      2.66500000 Mo
atom       4.95725851     13.39536334      4.33057215 Se
atom       4.95725851     13.39536334      0.99942785 Se
atom      13.28289479      0.95673829      2.66500000 Mo
atom      14.94797058      1.94760610      4.33057442 Se
atom      14.94797058      1.94760610      0.99942558 Se
atom      11.62794647      3.83817809      2.66500000 Mo
atom      13.29755914      4.80211972      4.33513583 Se
atom      13.29755914      4.80211972      0.99486417 Se
atom       9.95999658      6.71214440      2.66500000 Mo
atom      11.65066069      7.65868587      4.33056484 Se
atom      11.65066069      7.65868587      0.99943516 Se
atom       8.28105710      9.57390607      2.66500000 Mo
atom       9.95996024     10.53306602      4.32721398 Se
atom       9.95996024     10.53306602      1.00278602 Se
atom       6.62174616     12.44791983      2.66500000 Mo
atom       8.29190379     13.42227828      4.32721076 Se
atom       8.29190379     13.42227828      1.00278924 Se
# 
# What follows is the current estimated Hessian matrix constructed by the BFGS algorithm.
# This is NOT the true Hessian matrix of the system.
# If you do not want this information here, switch it off using the "hessian_to_restart_geometry" keyword.
# 
trust_radius             0.0003159361
hessian_file
