# 
# This is the geometry file that corresponds to the current relaxation step.
# If you do not want this file to be written, set the "write_restart_geometry" flag to .false.
#  aims_uuid : 0CAE4B83-9BD8-40FA-A3B9-B42461FC1B08                                
# 
  set_vacuum_level        52.578200
lattice_vector     16.23865900      0.00000000      0.00000000
lattice_vector     -8.11989635     14.06215255      0.00000000
lattice_vector      0.00000000      0.00000000     99.93951163
atom_frac       0.03532673      0.06875807      0.02687802 Mo
atom_frac       0.17602100      0.14359988      0.04252439 Se
atom_frac       0.16599405      0.13402698      0.00961533 Se
atom_frac       0.04013124      0.27006393      0.02704960 Mo
atom_frac       0.19244971      0.34622490      0.04253135 Se
atom_frac       0.16807673      0.33403312      0.00929900 Se
atom_frac       0.03533006      0.46657201      0.02687670 Mo
atom_frac       0.17602224      0.53241890      0.04252318 Se
atom_frac       0.16600171      0.53196485      0.00961430 Se
atom_frac       0.03285811      0.66609907      0.02685997 Mo
atom_frac       0.16811590      0.73206047      0.04306627 Se
atom_frac       0.16559534      0.73316654      0.01013294 Se
atom_frac       0.03285541      0.86675804      0.02686061 Mo
atom_frac       0.16811206      0.93604721      0.04306686 Se
atom_frac       0.16558943      0.93242088      0.01013334 Se
atom_frac       0.23456180      0.06906170      0.02623386 Mo
atom_frac       0.36577825      0.13930031      0.04283442 Se
atom_frac       0.36889167      0.13427417      0.00980540 Se
atom_frac       0.24354838      0.27298142      0.02511907 Mo
atom_frac       0.36948496      0.33407329      0.00802539 Se
atom_frac       0.24355151      0.47056647      0.02511831 Mo
atom_frac       0.36948795      0.53541380      0.00802419 Se
atom_frac       0.23457124      0.66550242      0.02623318 Mo
atom_frac       0.36578609      0.72647687      0.04283373 Se
atom_frac       0.36889999      0.73461953      0.00980440 Se
atom_frac       0.23345757      0.86672878      0.02671318 Mo
atom_frac       0.36601070      0.93300357      0.04336961 Se
atom_frac       0.36767529      0.93383644      0.01034025 Se
atom_frac       0.43358719      0.06760719      0.02688244 Mo
atom_frac       0.56520529      0.13344889      0.04374270 Se
atom_frac       0.56810402      0.13355140      0.01065384 Se
atom_frac       0.42895112      0.26946852      0.02573065 Mo
atom_frac       0.55773769      0.33266326      0.04305402 Se
atom_frac       0.56558998      0.33144278      0.01006052 Se
atom_frac       0.42430329      0.46215819      0.02456917 Mo
atom_frac       0.54513532      0.52256716      0.04245270 Se
atom_frac       0.56305316      0.53153073      0.00939960 Se
atom_frac       0.42895872      0.65948861      0.02572950 Mo
atom_frac       0.55773321      0.72507284      0.04305422 Se
atom_frac       0.56559642      0.73415439      0.01005976 Se
atom_frac       0.43359064      0.86598280      0.02688214 Mo
atom_frac       0.56520583      0.93176092      0.04374279 Se
atom_frac       0.56810718      0.93455480      0.01065376 Se
atom_frac       0.63372620      0.06686576      0.02737597 Mo
atom_frac       0.76752291      0.13376394      0.04402934 Se
atom_frac       0.76784936      0.13392308      0.01095530 Se
atom_frac       0.63193573      0.26638249      0.02714680 Mo
atom_frac       0.76560341      0.33365124      0.04382189 Se
atom_frac       0.76691351      0.33246498      0.01081502 Se
atom_frac       0.62674223      0.46405273      0.02655064 Mo
atom_frac       0.76048205      0.53106351      0.04337582 Se
atom_frac       0.76454904      0.53184526      0.01053455 Se
atom_frac       0.62674102      0.66269815      0.02655087 Mo
atom_frac       0.76047874      0.72941649      0.04337634 Se
atom_frac       0.76454887      0.73270762      0.01053494 Se
atom_frac       0.63193309      0.86555675      0.02714711 Mo
atom_frac       0.76559869      0.93195187      0.04382263 Se
atom_frac       0.76691315      0.93444731      0.01081572 Se
atom_frac       0.83473091      0.06765222      0.02746349 Mo
atom_frac       0.97206936      0.13679615      0.04370608 Se
atom_frac       0.96759324      0.13531695      0.01077708 Se
atom_frac       0.83473318      0.26708308      0.02746283 Mo
atom_frac       0.97207208      0.33527422      0.04370528 Se
atom_frac       0.96759612      0.33226904      0.01077645 Se
atom_frac       0.83212346      0.46613629      0.02718550 Mo
atom_frac       0.96807734      0.53334985      0.04348938 Se
atom_frac       0.96536554      0.53188300      0.01052016 Se
atom_frac       0.83057310      0.66528949      0.02701859 Mo
atom_frac       0.96570565      0.73285024      0.04339220 Se
atom_frac       0.96455678      0.73227825      0.01044720 Se
atom_frac       0.83211863      0.86598893      0.02718652 Mo
atom_frac       0.96807443      0.93472288      0.04349032 Se
atom_frac       0.96536142      0.93347875      0.01052141 Se
# 
# What follows is the current estimated Hessian matrix constructed by the BFGS algorithm.
# This is NOT the true Hessian matrix of the system.
# If you do not want this information here, switch it off using the "hessian_to_restart_geometry" keyword.
