# 
# This is the geometry file that corresponds to the current relaxation step.
# If you do not want this file to be written, set the "write_restart_geometry" flag to .false.
#  aims_uuid : 2C9AFB50-D882-487C-A3C8-549E658F95B7                                
# 
lattice_vector     16.55000000      0.00000000      0.00000000
lattice_vector     -8.27500000     14.33272043      0.00000000
lattice_vector      0.00000000      0.00000000    100.33000000
atom      -0.00129477      0.95478447      2.65586657 W
atom       1.65589000      1.91154081      4.33255674 Se
atom       1.65548269      1.91131755      0.97860597 Se
atom      -1.65499014      3.82070385      2.65767327 W
atom      -0.00113024      4.77622529      4.33921976 Se
atom      -0.00381245      4.77929573      0.97666525 Se
atom      -3.30738973      6.68714852      2.65990406 W
atom      -1.65500071      7.64397547      4.34225092 Se
atom      -1.65499824      7.64560334      0.97961368 Se
atom      -4.96498584      9.55817152      2.65990849 W
atom      -3.31013420     10.51074274      4.34224655 Se
atom      -3.30873303     10.50992591      0.97962033 Se
atom      -6.62117771     12.42236696      2.65768340 W
atom      -4.96673539     13.37690762      4.33922402 Se
atom      -4.96544198     13.37303713      0.97665927 Se
atom       3.31566033      0.95123954      2.65488103 W
atom       4.96087825      1.91029590      4.34278417 Se
atom       4.96124523      1.89446685      0.95852977 Se
atom       1.65414911      3.82912015      2.65488766 W
atom       3.30734127      4.77435989      4.34281113 Se
atom       3.29379647      4.78260566      0.95852947 Se
atom      -0.00263413      6.68712373      2.65990646 W
atom       1.66018174      7.64112573      4.33487597 Se
atom       1.65453690      7.64439210      0.98306584 Se
atom      -1.65500345      9.55515663      2.66160731 W
atom       0.00013360     10.51074069      4.34224279 Se
atom      -0.00127687     10.50991658      0.97961867 Se
atom      -3.31260422     12.42016198      2.65990560 W
atom      -1.65499811     13.38318539      4.33487739 Se
atom      -1.65501364     13.37664251      0.98304234 Se
atom       6.62002373      0.96610235      2.65488899 W
atom       8.27913448      1.91031511      4.34277641 Se
atom       8.27878042      1.89447825      0.95851942 Se
atom       4.91378918      3.79248232      2.64104949 W
atom       6.62000507      4.77753711      4.22752082 Se
atom       6.62002188      4.77747516      6.49088495 add_Se
atom       6.61999434      4.77755544      1.01249516 Se
atom       3.31919172      6.68331649      2.65491492 W
atom       4.96645047      7.64803078      4.34280464 Se
atom       4.95255827      7.65563494      0.95853889 Se
atom       1.65499983      9.55815897      2.65990880 W
atom       3.31060425     10.51233038      4.33923019 Se
atom       3.30660915     10.51312264      0.97666059 Se
atom       0.00258045     12.42017022      2.65989575 W
atom       1.65674454     13.37691212      4.33921646 Se
atom       1.65543955     13.37302931      0.97665349 Se
atom       9.92433714      0.95118690      2.65487058 W
atom      11.58409917      1.91155173      4.33254576 Se
atom      11.58450755      1.91131931      0.97859563 Se
atom       8.32616075      3.79252536      2.64104703 W
atom       9.93266162      4.77434587      4.34281178 Se
atom       9.94621465      4.78259108      0.95852053 Se
atom       6.62003240      6.74769148      2.64106147 W
atom       8.27354449      7.64804168      4.34280255 Se
atom       8.28745322      7.65565221      0.95854248 Se
atom       4.95843866      9.55237799      2.65489512 W
atom       6.62000357     10.50963606      4.33257039 Se
atom       6.62000541     10.51010039      0.97861313 Se
atom       3.31118073     12.42238720      2.65767299 W
atom       4.96595042     13.37776256      4.33758796 Se
atom       4.96481415     13.37709475      0.97543977 Se
atom      13.24127325      0.95479409      2.65585846 W
atom      14.89500694      1.90994417      4.33758902 Se
atom      14.89500791      1.91126302      0.97543450 Se
atom      11.58588572      3.82913371      2.65488275 W
atom      13.24112039      4.77622282      4.33921304 Se
atom      13.24382827      4.77929022      0.97666713 Se
atom       9.92079634      6.68326545      2.65491273 W
atom      11.57980972      7.64112671      4.33487781 Se
atom      11.58546044      7.64439393      0.98306274 Se
atom       8.28154127      9.55239579      2.65489342 W
atom       9.92938482     10.51232126      4.33923255 Se
atom       9.93338251     10.51312315      0.97666667 Se
atom       6.61999896     12.42317583      2.65587215 W
atom       8.27404644     13.37776888      4.33759172 Se
atom       8.27518504     13.37710797      0.97544524 Se
# 
# What follows is the current estimated Hessian matrix constructed by the BFGS algorithm.
# This is NOT the true Hessian matrix of the system.
# If you do not want this information here, switch it off using the "hessian_to_restart_geometry" keyword.
# 
