# 
# This is the geometry file that corresponds to the current relaxation step.
# If you do not want this file to be written, set the "write_restart_geometry" flag to .false.
#  aims_uuid : 4ECA4FFD-9776-4166-A022-634061D09FB2                                
# 
  set_vacuum_level        52.665000
lattice_vector      3.28486101     -0.00965415      0.00055709
lattice_vector     -1.65073821      2.83990211     -0.00707662
lattice_vector     -0.00002039      0.00004186     99.93114128
atom      -0.00324069      0.94529129      2.66089209 Mo
atom       1.63682313      1.88912655      4.36131384 Se
atom       1.63743076      1.88105641      0.95651578 Se
# 
# What follows is the current estimated Hessian matrix constructed by the BFGS algorithm.
# This is NOT the true Hessian matrix of the system.
# If you do not want this information here, switch it off using the "hessian_to_restart_geometry" keyword.
# 
trust_radius             0.0062500001
hessian_file
