# 
# This is the geometry file that corresponds to the current relaxation step.
# If you do not want this file to be written, set the "write_restart_geometry" flag to .false.
#  aims_uuid : A4B60978-7ADF-49FF-A663-46F9CDDA5CAC                                
# 
  set_vacuum_level        52.600000
lattice_vector      3.15723049     -0.00000000      0.00000000
lattice_vector     -1.57873226      2.73413142      0.00000000
lattice_vector     -0.00000000      0.00000000     99.83623392
atom      -0.00004979      0.91122404      2.59620808 W
atom       1.57854324      1.82258505      4.16009603 S
atom       1.57854397      1.82258022      1.03234995 S
# 
# What follows is the current estimated Hessian matrix constructed by the BFGS algorithm.
# This is NOT the true Hessian matrix of the system.
# If you do not want this information here, switch it off using the "hessian_to_restart_geometry" keyword.
# 
trust_radius             0.0003054996
hessian_file
