# 
# This is the geometry file that corresponds to the current relaxation step.
# If you do not want this file to be written, set the "write_restart_geometry" flag to .false.
#  aims_uuid : 885E894C-1170-4845-AE4C-04C243E86AE2                                
# 
  set_vacuum_level        52.570895
lattice_vector     15.80931190      0.00000000      0.00000000
lattice_vector     -7.90633915     13.69010115      0.00000000
lattice_vector      0.00000000      0.00000000     99.93885963
atom      -0.00344780      0.91591886      2.60781974 W
atom       1.57638934      1.79859737      4.19387722 S
atom       1.58455267      1.82883532      1.04549930 S
atom      -1.56323698      3.67314559      2.61410018 W
atom       0.02473677      4.59541579      4.18898801 S
atom       0.04413307      4.59617593      1.06550255 S
atom      -3.17240145      6.40225683      2.60319094 W
atom      -1.61104738      7.33013486      4.18163693 S
atom      -1.59607700      7.32080576      1.03251164 S
atom      -4.73967536      9.14480773      2.59819347 W
atom      -3.16728540     10.05723104      4.18311495 S
atom      -3.16497288     10.05931787      1.01814219 S
atom      -6.31787602     11.87775767      2.60009045 W
atom      -4.74075385     12.77760042      4.18780525 S
atom      -4.73908401     12.79027249      1.02299645 S
atom       3.16622316      0.90782066      2.61407453 W
atom       4.75645289      1.80808111      4.18785420 S
atom       4.74768681      1.81865744      1.03884802 S
atom       1.62695251      3.64550995      2.64216629 W
atom       3.16530407      4.49032087      4.22813707 S
atom       3.16867242      4.57078057      1.08585044 S
atom       0.00535079      6.44989252      2.62217839 W
atom       1.53917716      7.34144961      4.17572642 S
atom       1.54532010      7.33954232      1.03355150 S
atom      -1.59500608      9.15149769      2.60131594 W
atom      -0.01131569     10.06914618      4.17060878 S
atom      -0.02482247     10.07468246      1.02117309 S
atom      -3.16200411     11.87778591      2.60247093 W
atom      -1.57944012     12.78704384      4.18372014 S
atom      -1.58445931     12.79288162      1.02013002 S
atom       6.33574751      0.91580848      2.60544410 W
atom       7.91067471      1.84526692      4.17881722 S
atom       7.90570606      1.84359614      1.02384727 S
atom       4.70631354      3.64453156      2.61818733 W
atom       6.30178321      4.60375174      4.16028232 S
atom       6.29339524      4.58674972      1.03622632 S
atom       4.75096345      7.31570086      4.11011636 S
atom       4.82462134      7.36166239      0.96769423 S
atom       1.54464713      9.11676368      2.58291047 W
atom       3.17041208     10.01058969      4.13690817 S
atom       3.15931879     10.02654467      1.01341636 S
atom      -0.00331268     11.89198008      2.59825540 W
atom       1.59153811     12.78514012      4.17241539 S
atom       1.58341184     12.79228369      1.01743690 S
atom       9.48990013      0.92703170      2.59912515 W
atom      11.06999335      1.83855762      4.17742233 S
atom      11.07174070      1.84115652      1.02304604 S
atom       7.89537676      3.67291052      2.59920521 W
atom       9.48376789      4.57881194      4.17564254 S
atom       9.48662672      4.57374309      1.02069314 S
atom       6.32473303      6.44872462      2.57767573 W
atom       7.92525035      7.32527719      4.15957805 S
atom       7.94200048      7.32423690      1.01084146 S
atom       4.78418208      9.11479359      2.55836872 W
atom       6.33649196     10.05977404      4.15440200 S
atom       6.35787254     10.08249951      1.00596610 S
atom       3.16492828     11.86345817      2.58737353 W
atom       4.73978461     12.78298972      4.17086105 S
atom       4.74432850     12.79467316      1.01581524 S
atom      12.65195584      0.92729704      2.60034938 W
atom      14.22983730      1.83934008      4.18503675 S
atom      14.23743445      1.84997339      1.02989659 S
atom      11.07078533      3.66544545      2.60129940 W
atom      12.65039220      4.57792244      4.18379159 S
atom      12.66170192      4.57491211      1.02857523 S
atom       9.50308832      6.40227349      2.59418671 W
atom      11.06509812      7.32102205      4.18045456 S
atom      11.07461016      7.31974492      1.01686290 S
atom       7.92454665      9.15091723      2.58526938 W
atom       9.49005051     10.05394374      4.17698377 S
atom       9.50128776     10.06200096      1.01240336 S
atom       6.33253777     11.89167519      2.59241599 W
atom       7.90707229     12.78250489      4.18181489 S
atom       7.91537785     12.79709270      1.01847028 S
# 
# What follows is the current estimated Hessian matrix constructed by the BFGS algorithm.
# This is NOT the true Hessian matrix of the system.
# If you do not want this information here, switch it off using the "hessian_to_restart_geometry" keyword.
# 
trust_radius             0.0118282167
hessian_file
