# 
# This is the geometry file that corresponds to the current relaxation step.
# If you do not want this file to be written, set the "write_restart_geometry" flag to .false.
#  aims_uuid : 1A0786C2-DA9B-4E02-AE54-E8F77CEF189A                                
# 
  set_vacuum_level        52.570895
lattice_vector     15.80931190      0.00000000      0.00000000
lattice_vector     -7.90633915     13.69010115      0.00000000
lattice_vector      0.00000000      0.00000000     99.93885963
atom      -0.00341451      0.91587462      2.60789154 W
atom       1.57636076      1.79858858      4.19394765 S
atom       1.58453819      1.82886575      1.04555942 S
atom      -1.56316714      3.67326741      2.61419731 W
atom       0.02488765      4.59550350      4.18894155 S
atom       0.04425059      4.59626208      1.06573492 S
atom      -3.17230393      6.40242522      2.60328520 W
atom      -1.61100433      7.33010670      4.18181968 S
atom      -1.59612002      7.32070482      1.03244277 S
atom      -4.73977592      9.14481574      2.59818023 W
atom      -3.16728261     10.05722505      4.18299433 S
atom      -3.16493940     10.05930033      1.01827045 S
atom      -6.31788784     11.87765272      2.60007185 W
atom      -4.74083400     12.77757420      4.18780676 S
atom      -4.73922211     12.79033887      1.02300804 S
atom       3.16629208      0.90788363      2.61411713 W
atom       4.75650093      1.80815728      4.18786057 S
atom       4.74769436      1.81866418      1.03889686 S
atom       1.62709355      3.64535734      2.64221061 W
atom       3.16526401      4.49042756      4.22830166 S
atom       3.16865726      4.57083576      1.08589614 S
atom       0.00531692      6.45010831      2.62220295 W
atom       1.53923996      7.34159374      4.17585111 S
atom       1.54524142      7.33934802      1.03351693 S
atom      -1.59494718      9.15135082      2.60130800 W
atom      -0.01132277     10.06923536      4.17060092 S
atom      -0.02481068     10.07468302      1.02113762 S
atom      -3.16208456     11.87781524      2.60242472 W
atom      -1.57944847     12.78703320      4.18363064 S
atom      -1.58451004     12.79290927      1.02015026 S
atom       6.33594478      0.91592233      2.60540830 W
atom       7.91075502      1.84528133      4.17886868 S
atom       7.90571095      1.84365527      1.02375863 S
atom       4.70631630      3.64461537      2.61813579 W
atom       6.30186286      4.60367831      4.16035159 S
atom       6.29348752      4.58670057      1.03618107 S
atom       4.75103188      7.31565694      4.11020376 S
atom       4.82445525      7.36163487      0.96769891 S
atom       1.54459253      9.11664539      2.58293241 W
atom       3.17044414     10.01056448      4.13677144 S
atom       3.15924916     10.02649032      1.01339428 S
atom      -0.00331298     11.89198182      2.59816853 W
atom       1.59153108     12.78518006      4.17229889 S
atom       1.58339141     12.79233121      1.01738617 S
atom       9.48991758      0.92713972      2.59905007 W
atom      11.06999131      1.83851662      4.17745013 S
atom      11.07178398      1.84119094      1.02302129 S
atom       7.89535081      3.67294912      2.59920692 W
atom       9.48375806      4.57876571      4.17572614 S
atom       9.48665439      4.57370191      1.02062100 S
atom       6.32469913      6.44865176      2.57770015 W
atom       7.92514437      7.32530689      4.15955582 S
atom       7.94190106      7.32420619      1.01076897 S
atom       4.78421028      9.11475137      2.55820873 W
atom       6.33639847     10.05970505      4.15423933 S
atom       6.35788307     10.08247031      1.00591068 S
atom       3.16485959     11.86345368      2.58727467 W
atom       4.73978437     12.78289763      4.17078501 S
atom       4.74436329     12.79462657      1.01577258 S
atom      12.65191623      0.92720314      2.60031629 W
atom      14.22980310      1.83932171      4.18500307 S
atom      14.23745745      1.85002971      1.03001540 S
atom      11.07064050      3.66537023      2.60131940 W
atom      12.65029399      4.57790244      4.18373573 S
atom      12.66166865      4.57492492      1.02880408 S
atom       9.50296278      6.40213085      2.59425287 W
atom      11.06505594      7.32103174      4.18042065 S
atom      11.07458680      7.31969466      1.01694042 S
atom       7.92469683      9.15091034      2.58525040 W
atom       9.49001270     10.05403665      4.17704633 S
atom       9.50128173     10.06203556      1.01226488 S
atom       6.33263486     11.89169152      2.59234654 W
atom       7.90711535     12.78244279      4.18183568 S
atom       7.91547127     12.79713372      1.01840043 S
# 
# What follows is the current estimated Hessian matrix constructed by the BFGS algorithm.
# This is NOT the true Hessian matrix of the system.
# If you do not want this information here, switch it off using the "hessian_to_restart_geometry" keyword.
# 
trust_radius             0.0003357741
hessian_file
