&CONTROL
calculation = "scf"
pseudo_dir = "" ! insert pseudopotential directory
prefix = "unfold"
disk_io = "low"
/

&SYSTEM
ibrav = 0
nat = 76
ntyp = 3
ecutwfc = 30
noncolin = .true.
lspinorb = .true.
/

&ELECTRONS
/

ATOMIC_SPECIES
add_Se 1. ! add add_Se pseudo name
Se 1. ! add Se pseudo name
Mo 1. ! add Mo pseudo name

CELL_PARAMETERS angstrom
16.60000000	0.00000000	0.00000000
-8.30000000	14.37602170	0.00000000
0.00000000	0.00000000	100.00000000

ATOMIC_POSITIONS angstrom
Mo	-0.00106891	0.95779483	2.65830805
Se	1.65974688	1.91665909	4.32162189
Se	1.66004604	1.91683451	0.99513268
Mo	-1.65999839	3.83272156	2.66070587
Se	-0.00167556	4.79062678	4.32827990
Se	-0.00441028	4.79461533	0.99431155
Mo	-3.31855561	6.70755358	2.66386494
Se	-1.65999627	7.66666203	4.33140010
Se	-1.66000394	7.66876264	0.99891496
Mo	-4.98039077	9.58589841	2.66387077
Se	-3.32048086	10.54269781	4.33139907
Se	-3.31867116	10.54163980	0.99892526
Mo	-6.64077499	12.45966748	2.66071562
Se	-4.98204268	13.41686179	4.32828960
Se	-4.97996286	13.41248856	0.99431128
Mo	3.32344230	0.95280007	2.65769805
Se	4.97331580	1.91726925	4.32768605
Se	4.97485100	1.89907582	0.97707844
Mo	1.65688856	3.83939640	2.65770234
Se	3.31708078	4.78598294	4.32771186
Se	3.30207948	4.79642615	0.97707607
Mo	-0.00144654	6.70756553	2.66385628
Se	1.66627814	7.66359280	4.32534087
Se	1.65947347	7.66752316	1.00017916
Mo	-1.65999551	9.58401571	2.66602120
Se	0.00049086	10.54269937	4.33139267
Se	-0.00133128	10.54164274	0.99891566
Mo	-3.32182129	12.45859780	2.66386067
Se	-1.65999545	13.42485953	4.32534288
Se	-1.66000006	13.41698278	1.00017505
Mo	6.63999357	0.96780596	2.65769876
Se	8.30668755	1.91726065	4.32768755
Se	8.30514976	1.89907857	0.97708011
Mo	4.93328777	3.80665011	2.64154374
Se	6.63999338	4.79197541	4.22130123
add_Se	6.63995237	4.79194081	6.47534135
Se	6.64000412	4.79199260	1.02082267
Mo	3.32817090	6.70409141	2.65771615
Se	4.98375072	7.67275853	4.32770574
Se	4.96722853	7.68052611	0.97709323
Mo	1.66037447	9.58589642	2.66385671
Se	3.32036318	10.54457304	4.32829044
Se	3.31555016	10.54494186	0.99430674
Mo	0.00182009	12.45859824	2.66385447
Se	1.66204772	13.41685818	4.32828118
Se	1.65996422	13.41249354	0.99430627
Mo	9.95655497	0.95281263	2.65769617
Se	11.62026183	1.91665324	4.32162355
Se	11.61996191	1.91683838	0.99513577
Mo	8.34671088	3.80664192	2.64155211
Se	9.96292179	4.78598514	4.32772289
Se	9.97792355	4.79643072	0.97708793
Mo	6.63999538	6.76271511	2.64156370
Se	8.29624230	7.67275581	4.32771629
Se	8.31277674	7.68052641	0.97710267
Mo	4.97343154	9.58383194	2.65771069
Se	6.64000103	10.54271360	4.32164389
Se	6.64000840	10.54236150	0.99514379
Mo	3.32077576	12.45965742	2.66070478
Se	4.98122294	13.41833406	4.32546240
Se	4.97965619	13.41742104	0.99288899
Mo	13.28107244	0.95779381	2.65830712
Se	14.94000067	1.91540131	4.32546295
Se	14.94000135	1.91721985	0.99288306
Mo	11.62309443	3.83939741	2.65771066
Se	13.28168318	4.79062477	4.32828580
Se	13.28441051	4.79461700	0.99431839
Mo	9.95183408	6.70410161	2.65773049
Se	11.61373047	7.66359328	4.32535590
Se	11.62053007	7.66752670	1.00019373
Mo	8.30657193	9.58382242	2.65772060
Se	9.95963841	10.54457366	4.32830484
Se	9.96445514	10.54494114	0.99431959
Mo	6.63999288	12.46044354	2.65831639
Se	8.29877691	13.41833267	4.32546538
Se	8.30035288	13.41741539	0.99289436

K_POINTS automatic
4 4 1 0 0 0