 &dos
    prefix = "unfold"
    DeltaE=0.1
 /
