# 
# This is the geometry file that corresponds to the current relaxation step.
# If you do not want this file to be written, set the "write_restart_geometry" flag to .false.
#  aims_uuid : F5999AE9-0BAE-49B5-A9E5-C93C8D84BE4B                                
# 
lattice_vector      3.10308766     -0.00000033      0.00000004
lattice_vector     -0.00000033      3.10222999     -0.00000008
lattice_vector      0.00000004     -0.00000008      3.09583531
atom      -0.00000042     -0.00000033      0.00000124 Mo
atom       1.55154410      1.55111512      1.54791640 Mo
# 
# What follows is the current estimated Hessian matrix constructed by the BFGS algorithm.
# This is NOT the true Hessian matrix of the system.
# If you do not want this information here, switch it off using the "hessian_to_restart_geometry" keyword.
# 
trust_radius             0.0001380512
hessian_file
