#
lattice_vector      16.2956882     -0.00   -0.00
lattice_vector     -8.1402831      14.11790945      0.00
lattice_vector     -0.00      0.00    100.31494303
atom_frac 0.03332677 0.06666861 0.02656409 W
atom_frac 0.16667623 0.13333344 0.04341972 Se
atom_frac 0.16666079 0.13333269 0.00970610 Se
atom_frac 0.03333158 0.26665948 0.02656291 W
atom_frac 0.16667085 0.33332511 0.04341994 Se
atom_frac 0.16666889 0.33331966 0.00970519 Se
atom_frac 0.03333307 0.46666279 0.02656252 W
atom_frac 0.16666962 0.53332293 0.04341914 Se
atom_frac 0.16666460 0.53331979 0.00970468 Se
atom_frac 0.03333010 0.66666215 0.02656332 W
atom_frac 0.16666893 0.73333147 0.04341927 Se
atom_frac 0.16665974 0.73332806 0.00970527 Se
atom_frac 0.03333176 0.86666401 0.02656432 W
atom_frac 0.16667293 0.93333665 0.04341988 Se
atom_frac 0.16665426 0.93332553 0.00970452 Se
atom_frac 0.23333056 0.06666554 0.02656122 W
atom_frac 0.36666938 0.13333341 0.04341779 Se
atom_frac 0.36666566 0.13332904 0.00970295 Se
atom_frac 0.23334442 0.26667085 0.02656278 W
atom_frac 0.36668792 0.33333693 0.04341896 Se
atom_frac 0.36667398 0.33333195 0.00970350 Se
atom_frac 0.23333440 0.46665911 0.02656191 W
atom_frac 0.36667187 0.53332894 0.04341897 Se
atom_frac 0.36666650 0.53332595 0.00970365 Se
atom_frac 0.23332793 0.66666270 0.02656184 W
atom_frac 0.36665988 0.73332982 0.04341935 Se
atom_frac 0.36666119 0.73333094 0.00970438 Se
atom_frac 0.23332859 0.86666909 0.02656183 W
atom_frac 0.36666233 0.93333443 0.04341900 Se
atom_frac 0.36666202 0.93332909 0.00970368 Se
atom_frac 0.43333185 0.06667036 0.02656094 W
atom_frac 0.56666326 0.13333298 0.04341926 Se
atom_frac 0.56666643 0.13334014 0.00970322 Se
atom_frac 0.43334179 0.26666924 0.02656032 W
atom_frac 0.56667113 0.33333397 0.04341887 Se
atom_frac 0.56668312 0.33334123 0.00970340 Se
atom_frac 0.43333878 0.46666791 0.02656115 W
atom_frac 0.56667040 0.53333344 0.04341933 Se
atom_frac 0.56667789 0.53333988 0.00970446 Se
atom_frac 0.43332472 0.66666575 0.02656171 W
atom_frac 0.56666160 0.73333842 0.04341889 Se
atom_frac 0.56666545 0.73333607 0.00970535 Se
atom_frac 0.43332613 0.86666868 0.02656157 W
atom_frac 0.56666066 0.93334483 0.04341927 Se
atom_frac 0.56666081 0.93333826 0.00970401 Se
atom_frac 0.63332717 0.06667433 0.02656139 W
atom_frac 0.76666353 0.13334228 0.04341911 Se
atom_frac 0.76666354 0.13333706 0.00970389 Se
atom_frac 0.63333692 0.26667121 0.02656189 W
atom_frac 0.76666844 0.33333265 0.04342021 Se
atom_frac 0.76667328 0.33334294 0.00970480 Se
atom_frac 0.63334113 0.46667311 0.02656195 W
atom_frac 0.76666503 0.53332861 0.04342156 Se
atom_frac 0.76667949 0.53334262 0.00970565 Se
atom_frac 0.63333363 0.66667384 0.02656280 W
atom_frac 0.76666108 0.73333459 0.04342175 Se
atom_frac 0.76667340 0.73333849 0.00970648 Se
atom_frac 0.63332561 0.86667758 0.02656218 W
atom_frac 0.76665660 0.93333992 0.04342033 Se
atom_frac 0.76666650 0.93333376 0.00970567 Se
atom_frac 0.83332712 0.06667264 0.02656252 W
atom_frac 0.96665595 0.13332864 0.04342124 Se
atom_frac 0.96666417 0.13332621 0.00970534 Se
atom_frac 0.83333367 0.26667189 0.02656181 W
atom_frac 0.96666665 0.33332636 0.04341974 Se
atom_frac 0.96667299 0.33332805 0.00970469 Se
atom_frac 0.83333718 0.46667324 0.02656326 W
atom_frac 0.96667180 0.53332570 0.04342084 Se
atom_frac 0.96667031 0.53333131 0.00970536 Se
atom_frac 0.83333122 0.66667034 0.02656452 W
atom_frac 0.96666746 0.73332453 0.04342178 Se
atom_frac 0.96666389 0.73332819 0.00970672 Se
atom_frac 0.83332767 0.86667112 0.02656435 W
atom_frac 0.96666504 0.93332990 0.04342184 Se
atom_frac 0.96666541 0.93333088 0.00970772 Se
