# 
# This is the geometry file that corresponds to the current relaxation step.
# If you do not want this file to be written, set the "write_restart_geometry" flag to .false.
#  aims_uuid : D362730D-A782-40DF-AB68-6C52CB6DD951                                
# 
  set_vacuum_level       103.288256
lattice_vector     16.31232095      0.00000000      0.00000000
lattice_vector     -8.15665875     14.12581815      0.00000000
lattice_vector      0.00000000      0.00000000    103.32585319
atom       0.01860959      0.99479374     51.62748991 Mo
atom       1.66005549      1.98622595     53.28187060 Se
atom       1.66005378      1.98623097     49.97308168 Se
atom      -1.54970856      3.83291626     51.62747007 Mo
atom       0.11203791      4.96289991     53.24237385 Se
atom       0.11204850      4.96289265     50.01256733 Se
atom      -3.22761160      6.61895616     51.62746533 Mo
atom      -1.61447886      7.61753466     53.33125224 Se
atom      -1.61447533      7.61753204     49.92367586 Se
atom      -4.93433229      9.42894885     51.62745785 Mo
atom      -3.33620392     10.40037960     53.29754589 Se
atom      -3.33620342     10.40039668     49.95739761 Se
atom      -6.55127910     12.25636671     51.62747365 Mo
atom      -4.92324525     13.22383572     53.28575516 Se
atom      -4.92324238     13.22384182     49.96919956 Se
atom       3.26520277      0.98993724     51.62748341 Mo
atom       4.91752381      1.89490725     53.29247456 Se
atom       4.91752424      1.89490157     49.96248823 Se
atom       1.73553497      3.89542289     51.62748055 Mo
atom       3.36839291      4.92975918     53.17856401 Se
atom       3.36839722      4.92975147     50.07638017 Se
atom       0.00649693      6.97306089     51.62746835 Mo
atom      -1.71153393      9.46250118     51.62745913 Mo
atom      -0.06511462     10.30085636     53.33126490 Se
atom      -0.06511862     10.30085907     49.92368147 Se
atom      -3.29401323     12.27005041     51.62747985 Mo
atom      -1.62862056     13.17079468     53.28693578 Se
atom      -1.62862420     13.17079775     49.96801738 Se
atom       6.54889914      0.93014865     51.62748749 Mo
atom       8.20310199      1.83929248     53.28867932 Se
atom       8.20309616      1.83929032     49.96626674 Se
atom       5.00236291      3.78412511     51.62747478 Mo
atom       6.61293728      4.65672605     53.32349659 Se
atom       6.61292909      4.65672475     49.93144864 Se
atom       4.75401963      7.32972345     53.17856413 Se
atom       4.75401070      7.32972909     50.07636049 Se
atom       1.30338939      9.21922148     51.62745101 Mo
atom       3.09713131     10.13299436     53.24230896 Se
atom       3.09713088     10.13300330     50.01262022 Se
atom      -0.00691741     12.19709992     51.62747385 Mo
atom       1.65064272     13.11387350     53.28247395 Se
atom       1.65064253     13.11387770     49.97247125 Se
atom       9.82452664      0.89260395     51.62747730 Mo
atom      11.45896821      1.85916565     53.28498089 Se
atom      11.45896505      1.85916278     49.96996227 Se
atom       8.21740952      3.73048210     51.62746237 Mo
atom       9.84809658      4.68855194     53.28867725 Se
atom       9.84809440      4.68854812     49.96626335 Se
atom       6.56328223      6.48775259     51.62746146 Mo
atom       8.15700840      7.50585191     53.29247037 Se
atom       8.15701688      7.50585570     49.96245638 Se
atom       4.83347995      9.26093576     51.62746146 Mo
atom       6.44917365     10.28099137     53.28186014 Se
atom       6.44917877     10.28101906     49.97306730 Se
atom       3.24484717     12.13710279     51.62746882 Mo
atom       4.87043307     13.12832391     53.28489053 Se
atom       4.87043679     13.12833507     49.97005114 Se
atom      13.08371535      0.92116091     51.62747682 Mo
atom      14.71703111      1.92955776     53.28489729 Se
atom      14.71702987      1.92956714     49.97003602 Se
atom      11.47875642      3.75786960     51.62746204 Mo
atom      13.11956071      4.72511985     53.28246572 Se
atom      13.11957035      4.72511108     49.97247344 Se
atom       9.80831435      6.57564369     51.62745395 Mo
atom      11.43054692      7.53636481     53.28691604 Se
atom      11.43054849      7.53636916     49.96800645 Se
atom       8.11462492      9.38921028     51.62745200 Mo
atom       9.73725103     10.36277162     53.28573791 Se
atom       9.73724384     10.36278333     49.96919891 Se
atom       6.48702042     12.19817824     51.62746643 Mo
atom       8.12558656     13.20046157     53.27271356 Se
atom       8.12559642     13.20048648     49.98223385 Se
# 
# What follows is the current estimated Hessian matrix constructed by the BFGS algorithm.
# This is NOT the true Hessian matrix of the system.
# If you do not want this information here, switch it off using the "hessian_to_restart_geometry" keyword.
# 
trust_radius             0.0002187278
hessian_file
