# 
# This is the geometry file that corresponds to the current relaxation step.
# If you do not want this file to be written, set the "write_restart_geometry" flag to .false.
#  aims_uuid : E9D4D592-A2BD-433F-AE5E-2ECA9700529B                                
# 
  set_vacuum_level       103.108052
lattice_vector     15.72118630     -0.00130770      0.00000000
lattice_vector     -7.86163315     13.61413775      0.00000000
lattice_vector      0.00000000      0.00000000    103.10805205
atom       7.07290244     13.15961468     51.55431186 Mo
atom       0.78611303      0.45364276     53.10786663 S
atom       0.78581481      0.45380994     50.00016572 S
atom      13.36358515      2.26744382     51.55411694 Mo
atom      -0.78594540      3.17670179     53.10877598 S
atom      -0.78666789      3.17672098     49.99978380 S
atom      11.79042492      4.98914133     51.55524989 Mo
atom      -2.36022263      5.89884786     53.10963531 S
atom      -2.35821855      5.89916878     50.00103389 S
atom      10.20952068      7.70900808     51.55487727 Mo
atom      -3.93165288      8.62180705     53.10806435 S
atom      -3.93213716      8.62101239     50.00149753 S
atom       8.64462321     10.43617694     51.55552200 Mo
atom      -5.50321513     11.34467491     53.10856287 S
atom      -5.50363416     11.34496417     49.99979586 S
atom      -5.50285335     13.15981454     51.55385331 Mo
atom       3.93057054      0.45355884     53.10855497 S
atom       3.93012206      0.45377037     49.99983073 S
atom       0.78513693      2.26911515     51.55431541 Mo
atom       2.35667274      3.17684036     53.10799271 S
atom       2.35835217      3.17786507     50.00300082 S
atom      -0.78749744      4.99320552     51.55544537 Mo
atom       0.79809266      5.91635804     53.10853723 S
atom       0.78199018      5.91052565     49.99936504 S
atom      -2.35888283      7.71249185     51.55562114 Mo
atom      -0.76579922      8.62394506     53.10714751 S
atom      -0.77833043      8.61235404     49.99991597 S
atom      -3.93174512     10.43697714     51.55456267 Mo
atom      -2.35801116     11.34416416     53.10702028 S
atom      -2.35800059     11.34417154     50.00191473 S
atom      -2.35916153     13.16064358     51.55456819 Mo
atom       7.07451841      0.45398809     53.10811337 S
atom       7.07493378      0.45480241     50.00148994 S
atom       3.92960107      2.26975843     51.55550899 Mo
atom       5.51389247      3.19329872     53.10784781 S
atom       5.49841322      3.18839791     49.99932445 S
atom       2.35736545      5.00066622     51.55581112 Mo
atom       3.93867511      5.91908987     53.10653282 S
atom       3.94111516      5.90071160     49.99911425 S
atom       0.80324631      7.72360123     51.54501282 Mo
atom       2.35913251      8.62076813     50.01221044 S
atom      -0.77841022     10.43220348     51.55447028 Mo
atom       0.79393292     11.32534098     53.10709317 S
atom       0.79770700     11.34197715     49.99992750 S
atom       0.78685308     13.16076174     51.55555311 Mo
atom      10.21841845      0.45457118     53.10966197 S
atom      10.21915630      0.45264457     50.00097006 S
atom       7.07385279      2.27808270     51.55487325 Mo
atom       8.63418601      3.19289440     53.10732626 S
atom       8.65063133      3.18764507     49.99969274 S
atom       5.52199535      5.00095972     51.54629271 Mo
atom       7.07353541      5.89892319     50.01318469 S
atom       3.92188306      7.71859014     51.54510249 Mo
atom       5.48866217      8.60368710     53.10655999 S
atom       5.50576961      8.61076540     49.99908415 S
atom       2.35813132     10.41666664     51.54504712 Mo
atom       3.92072320     11.32478278     53.10851680 S
atom       3.91772601     11.34166093     49.99940679 S
atom       3.92737727     13.15963297     51.55545800 Mo
atom      13.36298830      0.45228348     53.10881635 S
atom      13.36261715      0.45288153     49.99981616 S
atom      10.21986522      2.26884368     51.55519702 Mo
atom      11.79200024      3.17471310     53.10886163 S
atom      11.79017763      3.17580210     50.00127901 S
atom       8.62907392      5.00083849     51.54445241 Mo
atom      10.19733812      5.90033143     53.10735903 S
atom      10.21012830      5.88869892     49.99970391 S
atom       7.07546044      7.69158152     51.54628297 Mo
atom       8.63689545      8.60234348     53.10788189 S
atom       8.63339875      8.61819879     49.99929381 S
atom       5.49345667     10.43227092     51.55583940 Mo
atom       7.07252105     11.34476215     53.10795513 S
atom       7.07246916     11.34280482     50.00301441 S
# 
# What follows is the current estimated Hessian matrix constructed by the BFGS algorithm.
# This is NOT the true Hessian matrix of the system.
# If you do not want this information here, switch it off using the "hessian_to_restart_geometry" keyword.
# 
trust_radius             0.0500000007
hessian_file
