# 
# This is the geometry file that corresponds to the current relaxation step.
# If you do not want this file to be written, set the "write_restart_geometry" flag to .false.
#  aims_uuid : 9BB785C3-13EE-4D35-A691-6E00BDEC20A5                                
# 
  set_vacuum_level       103.108052
lattice_vector     15.72118630     -0.00130770      0.00000000
lattice_vector     -7.86163315     13.61413775      0.00000000
lattice_vector      0.00000000      0.00000000    103.10805205
atom       7.06647135     13.15204718     51.59328552 Mo
atom       0.78877031      0.45212267     53.14323091 S
atom       0.77904559      0.45774495     50.04251938 S
atom      13.36154099      2.26854694     51.61208947 Mo
atom      -0.77231677      3.19704168     53.15396221 S
atom      -0.79292290      3.18080973     50.05202221 S
atom      11.77779224      4.98990856     51.59470539 Mo
atom      -2.35990217      5.91353963     53.14328008 S
atom      -2.36253249      5.88676284     50.03958014 S
atom      10.18826882      7.69645769     51.54676200 Mo
atom      -3.94402858      8.60891049     53.10993528 S
atom      -3.93073392      8.61254056     50.01574395 S
atom       8.62754031     10.41554290     51.56854427 Mo
atom      -5.51132601     11.32426039     53.12462862 S
atom      -5.51336337     11.34480143     50.02649926 S
atom      -5.50377536     13.16037482     51.58497294 Mo
atom       3.94424010      0.47078240     53.12466193 S
atom       3.92546364      0.46230195     50.02654731 S
atom       0.78849532      2.27848717     51.59329787 Mo
atom       2.37498739      3.22142895     53.11630594 S
atom       2.35147917      3.17411154     50.02022634 S
atom      -0.77622189      5.01105374     51.59023418 Mo
atom       0.86002205      5.98365809     53.09526714 S
atom       0.77080431      5.91363586     49.98647764 S
atom      -2.34857042      7.70906777     51.56977658 Mo
atom      -0.69956317      8.62530874     53.08114314 S
atom      -0.77608554      8.59377798     49.98004788 S
atom      -3.93292608     10.42990185     51.56681827 Mo
atom      -2.33391148     11.33024119     53.10015200 S
atom      -2.36344713     11.34733278     50.00791785 S
atom      -2.35361673     13.16519029     51.56686496 Mo
atom       7.07950133      0.47115616     53.11001157 S
atom       7.08301965      0.45784023     50.01582671 S
atom       3.93895595      2.29481770     51.56860364 Mo
atom       5.54027813      3.27184271     53.09051631 S
atom       5.49346727      3.20233701     49.98297800 S
atom       2.37388240      5.02467906     51.53046542 Mo
atom       3.96871724      5.97657695     53.04479756 S
atom       3.95367803      5.89111617     49.93213213 S
atom       0.84559168      7.74179605     51.49286790 Mo
atom       2.36018846      8.62012047     49.91221181 S
atom      -0.76082510     10.42207028     51.52927159 Mo
atom       0.82588341     11.26730421     53.08117478 S
atom       0.81493876     11.34940131     49.98008246 S
atom       0.79489812     13.15353641     51.56985070 Mo
atom      10.20587267      0.44698638     53.14332579 S
atom      10.22770469      0.46261906     50.03963653 S
atom       7.07417017      2.30272908     51.54684286 Mo
atom       8.59456478      3.24753468     53.10769608 S
atom       8.66814609      3.19541405     50.00010533 S
atom       5.54645478      5.03604131     51.48999182 Mo
atom       7.08346813      5.89314189     49.93399752 S
atom       3.91268539      7.72377549     51.44738652 Mo
atom       5.45386562      8.54885467     53.04475450 S
atom       5.52031976      8.60461835     49.93211480 S
atom       2.36357053     10.37093533     51.49289103 Mo
atom       3.89340642     11.23747443     53.09525449 S
atom       3.90940318     11.34978897     49.98649673 S
atom       3.91762942     13.14085038     51.59026257 Mo
atom      13.35222423      0.43031908     53.15397348 S
atom      13.35593990      0.45625998     50.05201841 S
atom      10.21289998      2.27945895     51.59474724 Mo
atom      11.78010387      3.18162633     53.16004634 S
atom      11.79556496      3.17265001     50.05417934 S
atom       8.59682124      5.01945033     51.51393111 Mo
atom      10.13024523      5.90737982     53.10765139 S
atom      10.21213756      5.86965607     50.00005393 S
atom       7.05725758      7.65280895     51.48995553 Mo
atom       8.58203338      8.54025346     53.09043910 S
atom       8.61878105      8.61554423     49.98290432 S
atom       5.48086189     10.40598804     51.53044613 Mo
atom       7.04309449     11.30664110     53.11627081 S
atom       7.07228112     11.35067561     50.02018130 S
# 
# What follows is the current estimated Hessian matrix constructed by the BFGS algorithm.
# This is NOT the true Hessian matrix of the system.
# If you do not want this information here, switch it off using the "hessian_to_restart_geometry" keyword.
# 
trust_radius             0.0008128340
hessian_file
