#
#lattice_vector  15.83905019 0.00000000 0.00000000
#lattice_vector  -7.92011750 13.71653974 0.00000000
#lattice_vector  0.00000000 0.00000000 99.87375975
##
lattice_vector     16.44347560      0.00000000      0.00000000
lattice_vector     -8.22357185     14.23911350      0.00000000
lattice_vector      0.00000000      0.00000000     99.63748923

atom_frac 0.03551045 0.06847045 0.02591582 W
atom_frac 0.17290304 0.14036176 0.04286527 Se
atom_frac 0.17026505 0.13788609 0.00844124 Se
atom_frac 0.03548546 0.26772247 0.02594216 W
atom_frac 0.17142350 0.33583269 0.04314053 Se
atom_frac 0.16801583 0.33616565 0.00841508 Se
atom_frac 0.03294674 0.46739410 0.02610605 W
atom_frac 0.16605744 0.53436502 0.04351751 Se
atom_frac 0.16496746 0.53476777 0.00856333 Se
atom_frac 0.03203532 0.66700467 0.02610853 W
atom_frac 0.16604578 0.73483484 0.04335667 Se
atom_frac 0.16528836 0.73384763 0.00870774 Se
atom_frac 0.03278242 0.86724703 0.02601150 W
atom_frac 0.16730833 0.93611633 0.04320032 Se
atom_frac 0.16606094 0.93437772 0.00856326 Se
atom_frac 0.23584846 0.06963151 0.02568774 W
atom_frac 0.36769442 0.13491566 0.04327589 Se
atom_frac 0.36830925 0.13569983 0.00814360 Se
atom_frac 0.24084068 0.27499268 0.02538314 W
atom_frac 0.38615996 0.35549064 0.04125314 Se
atom_frac 0.37435868 0.33967084 0.00749419 Se
atom_frac 0.23276646 0.46911227 0.02587158 W
atom_frac 0.36727211 0.53383081 0.04315385 Se
atom_frac 0.36644604 0.53162260 0.00919052 Se
atom_frac 0.23245627 0.66742623 0.02605511 W
atom_frac 0.36515851 0.73513508 0.04354240 Se
atom_frac 0.36558667 0.73348117 0.00861066 Se
atom_frac 0.23298793 0.86798008 0.02593543 W
atom_frac 0.36651783 0.93475624 0.04325855 Se
atom_frac 0.36638203 0.93390801 0.00854910 Se
atom_frac 0.43379954 0.06790072 0.02585277 W
atom_frac 0.56674981 0.13146888 0.04332632 Se
atom_frac 0.56778367 0.13207605 0.00853330 Se
atom_frac 0.43814262 0.26693441 0.02579146 W
atom_frac 0.56777163 0.32955606 0.04352727 Se
atom_frac 0.57055508 0.33211609 0.00845271 Se
atom_frac 0.56007623 0.52542365 0.04443043 Se
atom_frac 0.54531425 0.51391463 0.01068806 Se
atom_frac 0.43077347 0.66687308 0.02630310 W
atom_frac 0.56404468 0.73184141 0.04366473 Se
atom_frac 0.56374827 0.72823308 0.00894821 Se
atom_frac 0.43253541 0.86695967 0.02596308 W
atom_frac 0.56606030 0.93232330 0.04337583 Se
atom_frac 0.56640574 0.93147121 0.00864281 Se
atom_frac 0.63378753 0.06526813 0.02597634 W
atom_frac 0.76725028 0.13232178 0.04339336 Se
atom_frac 0.76756714 0.13263702 0.00865034 Se
atom_frac 0.63513973 0.26483162 0.02600561 W
atom_frac 0.76777065 0.33217036 0.04349505 Se
atom_frac 0.76858700 0.33317560 0.00869958 Se
atom_frac 0.63337456 0.46194480 0.02617341 W
atom_frac 0.76425934 0.53165146 0.04386577 Se
atom_frac 0.76547802 0.53236005 0.00871182 Se
atom_frac 0.62512284 0.65906334 0.02664212 W
atom_frac 0.76224023 0.72969648 0.04357539 Se
atom_frac 0.75968297 0.72711563 0.00914380 Se
atom_frac 0.63215360 0.86432031 0.02612063 W
atom_frac 0.76624949 0.93226880 0.04341232 Se
atom_frac 0.76574382 0.93131895 0.00875012 Se
atom_frac 0.83395464 0.06592657 0.02602052 W
atom_frac 0.96852884 0.13404480 0.04329332 Se
atom_frac 0.96761291 0.13374577 0.00862762 Se
atom_frac 0.83462464 0.26611443 0.02606831 W
atom_frac 0.96830450 0.33344633 0.04341875 Se
atom_frac 0.96762290 0.33390883 0.00868221 Se
atom_frac 0.83213095 0.46616233 0.02616998 W
atom_frac 0.96592322 0.53360523 0.04349817 Se
atom_frac 0.96540231 0.53345985 0.00878536 Se
atom_frac 0.83043154 0.66411928 0.02631958 W
atom_frac 0.96558028 0.73396888 0.04346027 Se
atom_frac 0.96403424 0.73270945 0.00882463 Se
atom_frac 0.83152690 0.86443696 0.02610893 W
atom_frac 0.96704936 0.93454944 0.04331279 Se
atom_frac 0.96544001 0.93295728 0.00871060 Se
