# 
# This is the geometry file that corresponds to the current relaxation step.
# If you do not want this file to be written, set the "write_restart_geometry" flag to .false.
#  aims_uuid : 2D8C1802-84B5-4338-ABBA-1A9C822A3C80                                
# 
  set_vacuum_level        52.761532
lattice_vector     16.29568820      0.00000000      0.00000000
lattice_vector     -8.14028310     14.11790945      0.00000000
lattice_vector      0.00000000      0.00000000    100.31494303
atom_frac       0.03273490      0.06595161      0.02570347 W
atom_frac       0.16822461      0.13462917      0.04192912 Se
atom_frac       0.16290761      0.12794576      0.00859481 Se
atom_frac       0.03386399      0.26701762      0.02557756 W
atom_frac       0.17134117      0.33436605      0.04155848 Se
atom_frac       0.16695218      0.33438755      0.00871400 Se
atom_frac       0.03276768      0.46666708      0.02598340 W
atom_frac       0.16671447      0.53330651      0.04262272 Se
atom_frac       0.16397732      0.53546539      0.00913785 Se
atom_frac       0.03341611      0.66679526      0.02610670 W
atom_frac       0.16664860      0.73411634      0.04267451 Se
atom_frac       0.16605546      0.73319659      0.00939140 Se
atom_frac       0.03344702      0.86664067      0.02600712 W
atom_frac       0.16749018      0.93463332      0.04244448 Se
atom_frac       0.16521291      0.93081888      0.00913481 Se
atom_frac       0.23279049      0.06543926      0.02542078 W
atom_frac       0.36549881      0.13342913      0.04210430 Se
atom_frac       0.36588679      0.12906053      0.00873487 Se
atom_frac       0.23322105      0.26317574      0.02463930 W
atom_frac       0.37268294      0.34602161      0.03955058 Se
atom_frac       0.36031348      0.31922566      0.00704734 Se
atom_frac       0.23251937      0.47021182      0.02533137 W
atom_frac       0.36823809      0.53530800      0.04230249 Se
atom_frac       0.36529479      0.52995868      0.01019845 Se
atom_frac       0.23276300      0.66715460      0.02606507 W
atom_frac       0.36434928      0.73632397      0.04300299 Se
atom_frac       0.36666418      0.73271758      0.00953238 Se
atom_frac       0.23319581      0.86662401      0.02592967 W
atom_frac       0.36629788      0.93427837      0.04259205 Se
atom_frac       0.36660206      0.93222608      0.00929238 Se
atom_frac       0.43323844      0.06600016      0.02580387 W
atom_frac       0.56599710      0.13370226      0.04255828 Se
atom_frac       0.56723011      0.13377537      0.00932089 Se
atom_frac       0.42933613      0.26308088      0.02501990 W
atom_frac       0.56231477      0.33256301      0.04235352 Se
atom_frac       0.56767352      0.33750165      0.00952888 Se
atom_frac       0.58066428      0.53948930      0.04484464 Se
atom_frac       0.55530316      0.52754279      0.01232145 Se
atom_frac       0.42925314      0.66686693      0.02691205 W
atom_frac       0.56575198      0.73287256      0.04340300 Se
atom_frac       0.56504600      0.72795375      0.01061207 Se
atom_frac       0.43321634      0.86713667      0.02609487 W
atom_frac       0.56611695      0.93408381      0.04282692 Se
atom_frac       0.56703003      0.93194075      0.00958885 Se
atom_frac       0.63296216      0.06650369      0.02604297 W
atom_frac       0.76681877      0.13357153      0.04260339 Se
atom_frac       0.76629320      0.13299729      0.00943398 Se
atom_frac       0.63280122      0.26710134      0.02597853 W
atom_frac       0.76589977      0.33267205      0.04267837 Se
atom_frac       0.76642941      0.33391972      0.00944161 Se
atom_frac       0.63742164      0.47066536      0.02683997 W
atom_frac       0.77076207      0.53403286      0.04324245 Se
atom_frac       0.76735151      0.53472772      0.00983815 Se
atom_frac       0.63719554      0.66662410      0.02745379 W
atom_frac       0.77259007      0.73726646      0.04343515 Se
atom_frac       0.76533918      0.73175772      0.01008364 Se
atom_frac       0.63279083      0.86585995      0.02651106 W
atom_frac       0.76759967      0.93451660      0.04289377 Se
atom_frac       0.76493156      0.93135195      0.00967404 Se
atom_frac       0.83335183      0.06645692      0.02602095 W
atom_frac       0.96837121      0.13472388      0.04237818 Se
atom_frac       0.96532759      0.13239703      0.00915232 Se
atom_frac       0.83333156      0.26689849      0.02599244 W
atom_frac       0.96766036      0.33277424      0.04248079 Se
atom_frac       0.96590993      0.33381447      0.00923941 Se
atom_frac       0.83403944      0.46671553      0.02619946 W
atom_frac       0.96754466      0.53336708      0.04274696 Se
atom_frac       0.96599631      0.53365732      0.00944571 Se
atom_frac       0.83471267      0.66724410      0.02657207 W
atom_frac       0.96920855      0.73485148      0.04287803 Se
atom_frac       0.96561966      0.73259466      0.00956951 Se
atom_frac       0.83410072      0.86723855      0.02631851 W
atom_frac       0.96882421      0.93526475      0.04266483 Se
atom_frac       0.96478715      0.93127027      0.00935292 Se
# 
# What follows is the current estimated Hessian matrix constructed by the BFGS algorithm.
# This is NOT the true Hessian matrix of the system.
# If you do not want this information here, switch it off using the "hessian_to_restart_geometry" keyword.
# 
