# 
# This is the geometry file that corresponds to the current relaxation step.
# If you do not want this file to be written, set the "write_restart_geometry" flag to .false.
#  aims_uuid : 08168665-03D9-4A4B-AE4F-706454743B94                                
# 
  set_vacuum_level        52.810824
lattice_vector     16.41708800      0.00000000      0.00000000
lattice_vector     -8.21125790     14.21583190      0.00000000
lattice_vector      0.00000000      0.00000000     99.89650741
atom       0.06678648      1.07459707      2.68196706 Mo
atom       1.73384896      2.10793395      4.33032050 Se
atom       1.72615742      2.10249690      1.02479002 Se
atom      -1.56079842      3.89948447      2.68537965 Mo
atom       0.08402052      4.88664942      4.35928878 Se
atom       0.07172036      4.88537487      1.00526829 Se
atom      -3.28103894      6.73158821      2.68646794 Mo
atom      -1.67309349      7.70400830      4.37118417 Se
atom      -1.67577157      7.70134945      0.99638225 Se
atom      -4.92866535      9.57170098      2.68483520 Mo
atom      -3.29758435     10.54206991      4.36026947 Se
atom      -3.30082174     10.53661931      1.00227599 Se
atom      -6.55547264     12.41888741      2.68135114 Mo
atom      -4.91416025     13.39810830      4.34817606 Se
atom      -4.91689096     13.39540402      1.00810767 Se
atom       3.34780674      1.09593964      2.67537342 Mo
atom       4.99156481      2.00661305      4.37234888 Se
atom       4.98368981      2.02219547      0.97556260 Se
atom       1.77324411      4.05397346      2.67309331 Mo
atom       3.52882433      5.11616857      4.24693670 Se
atom       3.46439965      5.05819253      1.02878674 Se
atom      -0.02202301      6.78687168      2.68254895 Mo
atom       1.57329505      7.72656807      4.35132404 Se
atom       1.57343292      7.72721572      1.01072830 Se
atom      -1.66193230      9.59431596      2.68123310 Mo
atom      -0.02960349     10.55303476      4.36606191 Se
atom      -0.03066605     10.54948433      0.99125878 Se
atom      -3.27629757     12.43428426      2.67777197 Mo
atom      -1.62910635     13.37489283      4.35679334 Se
atom      -1.63057743     13.37223225      0.99354446 Se
atom       6.61163188      1.04294050      2.67287540 Mo
atom       8.29020324      1.93350789      4.35617033 Se
atom       8.29460153      1.93906120      0.99703214 Se
atom       5.10872559      3.88852064      2.68512552 Mo
atom       6.72944431      4.74885852      4.39405599 Se
atom       6.73099141      4.75155844      0.96858070 Se
atom       4.83019398      7.42414573      4.33385546 Se
atom       4.81215054      7.33945297      1.11566257 Se
atom       1.58941333      9.57854865      2.67975503 Mo
atom       3.28281641     10.44833369      4.35726124 Se
atom       3.28803126     10.43711959      1.00319050 Se
atom       0.00720426     12.42814215      2.67602927 Mo
atom       1.68728231     13.32144254      4.35599892 Se
atom       1.68843171     13.32121727      0.99736137 Se
atom       9.92873022      0.99639205      2.67774452 Mo
atom      11.56544528      1.95599414      4.36035713 Se
atom      11.56828350      1.96086325      1.00227544 Se
atom       8.33014801      3.82668673      2.68130778 Mo
atom       9.94693916      4.80159602      4.36554571 Se
atom       9.94952623      4.80819106      1.00645680 Se
atom       6.66543877      6.58529139      2.67750966 Mo
atom       8.21900991      7.62698020      4.38711096 Se
atom       8.23641231      7.62802552      0.99025240 Se
atom       4.85392190      9.39088479      2.68949865 Mo
atom       6.52015744     10.40759455      4.33789927 Se
atom       6.51935256     10.39829548      1.03228642 Se
atom       3.32002106     12.35504834      2.67717844 Mo
atom       4.96159775     13.31885462      4.35445291 Se
atom       4.96446710     13.32069485      1.00427268 Se
atom      13.20175855      1.01476227      2.68132464 Mo
atom      14.84256095      1.99260481      4.35835895 Se
atom      14.84277616      1.99591701      1.00818587 Se
atom      11.58059380      3.85807738      2.68483626 Mo
atom      13.20358974      4.82911421      4.36518464 Se
atom      13.20276911      4.82993682      1.00656172 Se
atom       9.88118678      6.70715916      2.68972350 Mo
atom      11.49939455      7.67751363      4.36904774 Se
atom      11.49775207      7.67493966      1.00579758 Se
atom       8.20282525      9.50681294      2.68730957 Mo
atom       9.83561951     10.51154275      4.35456477 Se
atom       9.83454620     10.50788612      1.01447899 Se
atom       6.58027240     12.35855866      2.68071751 Mo
atom       8.22503469     13.36395994      4.34798793 Se
atom       8.22469008     13.36333680      1.01470642 Se
# 
# What follows is the current estimated Hessian matrix constructed by the BFGS algorithm.
# This is NOT the true Hessian matrix of the system.
# If you do not want this information here, switch it off using the "hessian_to_restart_geometry" keyword.
# 
trust_radius             0.0009966868
hessian_file
