# 
# This is the geometry file that corresponds to the current relaxation step.
# If you do not want this file to be written, set the "write_restart_geometry" flag to .false.
#  aims_uuid : 79078B4C-B207-4C9C-A5D8-CEA10052130F                                
# 
  set_vacuum_level        52.810824
lattice_vector     16.41708800      0.00000000      0.00000000
lattice_vector     -8.21125790     14.21583190      0.00000000
lattice_vector      0.00000000      0.00000000     99.89650741
atom       0.06697195      1.07492829      2.68176710 Mo
atom       1.73377338      2.10846577      4.33037162 Se
atom       1.72666565      2.10346905      1.02519187 Se
atom      -1.56063504      3.89966488      2.68513245 Mo
atom       0.08377673      4.88675130      4.35930545 Se
atom       0.07208003      4.88574484      1.00530738 Se
atom      -3.28098612      6.73153522      2.68625961 Mo
atom      -1.67337198      7.70419579      4.37103897 Se
atom      -1.67592475      7.70164381      0.99625604 Se
atom      -4.92903088      9.57167647      2.68449314 Mo
atom      -3.29796231     10.54203408      4.36015403 Se
atom      -3.30097884     10.53692975      1.00228667 Se
atom      -6.55578729     12.41888423      2.68106839 Mo
atom      -4.91451532     13.39820809      4.34820553 Se
atom      -4.91690564     13.39580742      1.00830274 Se
atom       3.34804851      1.09639824      2.67565257 Mo
atom       4.99148982      2.00705820      4.37298483 Se
atom       4.98402302      2.02226084      0.97602963 Se
atom       1.77370491      4.05491751      2.67347939 Mo
atom       3.52848938      5.11644542      4.24867590 Se
atom       3.46622903      5.06049602      1.03064733 Se
atom      -0.02228428      6.78705177      2.68258692 Mo
atom       1.57293196      7.72672225      4.35137152 Se
atom       1.57314308      7.72729958      1.01054848 Se
atom      -1.66218804      9.59441781      2.68122246 Mo
atom      -0.02990460     10.55304404      4.36617317 Se
atom      -0.03089520     10.54974190      0.99137330 Se
atom      -3.27639680     12.43458019      2.67792678 Mo
atom      -1.62928600     13.37480916      4.35718814 Se
atom      -1.63071322     13.37249153      0.99385088 Se
atom       6.61170208      1.04296613      2.67346405 Mo
atom       8.29058318      1.93329941      4.35659365 Se
atom       8.29472074      1.93875040      0.99747347 Se
atom       5.10932926      3.88875757      2.68526378 Mo
atom       6.73023529      4.74847952      4.39446693 Se
atom       6.73171568      4.75103940      0.96870259 Se
atom       4.82915277      7.42149564      4.33236712 Se
atom       4.81226367      7.33960885      1.11409573 Se
atom       1.58922113      9.57861098      2.67983632 Mo
atom       3.28272907     10.44798571      4.35718515 Se
atom       3.28769239     10.43717220      1.00319124 Se
atom       0.00704547     12.42817224      2.67638133 Mo
atom       1.68742697     13.32121265      4.35613770 Se
atom       1.68832488     13.32113753      0.99756585 Se
atom       9.92896908      0.99612956      2.67797974 Mo
atom      11.56583846      1.95595614      4.36034810 Se
atom      11.56833293      1.96072312      1.00219152 Se
atom       8.33067352      3.82633803      2.68145031 Mo
atom       9.94747624      4.80169513      4.36554535 Se
atom       9.94966460      4.80795980      1.00647707 Se
atom       6.66564028      6.58469693      2.67808816 Mo
atom       8.21927153      7.62686954      4.38694873 Se
atom       8.23593236      7.62751476      0.98991466 Se
atom       4.85322587      9.39007884      2.68906127 Mo
atom       6.51955788     10.40688822      4.33744841 Se
atom       6.51881112     10.39774263      1.03210926 Se
atom       3.32006851     12.35494529      2.67713014 Mo
atom       4.96172444     13.31864840      4.35430429 Se
atom       4.96437903     13.32047190      1.00410779 Se
atom      13.20181901      1.01455715      2.68107820 Mo
atom      14.84273240      1.99269762      4.35810652 Se
atom      14.84293146      1.99603574      1.00800506 Se
atom      11.58081503      3.85805538      2.68459010 Mo
atom      13.20371914      4.82910493      4.36498729 Se
atom      13.20281798      4.82991418      1.00641276 Se
atom       9.88114450      6.70714422      2.68936723 Mo
atom      11.49933593      7.67757452      4.36880767 Se
atom      11.49761043      7.67495336      1.00551508 Se
atom       8.20264181      9.50646116      2.68687087 Mo
atom       9.83535346     10.51160566      4.35421423 Se
atom       9.83429326     10.50789250      1.01421919 Se
atom       6.58021344     12.35817522      2.68034697 Mo
atom       8.22487336     13.36397159      4.34763358 Se
atom       8.22465925     13.36345685      1.01448323 Se
# 
# What follows is the current estimated Hessian matrix constructed by the BFGS algorithm.
# This is NOT the true Hessian matrix of the system.
# If you do not want this information here, switch it off using the "hessian_to_restart_geometry" keyword.
# 
trust_radius             0.0086845145
hessian_file
