# 
# This is the geometry file that corresponds to the current relaxation step.
# If you do not want this file to be written, set the "write_restart_geometry" flag to .false.
#  aims_uuid : EFCB9DB9-227F-4511-ABCD-EE9CE7153B53                                
# 
  set_vacuum_level        52.254965
lattice_vector     15.76960250      0.00000000      0.00000000
lattice_vector     -7.88732950     13.65525595      0.00000000
lattice_vector      0.00000000      0.00000000     99.30554027
atom       0.05350930      1.00412770      2.59972941 Mo
atom       1.65683795      2.02340983      4.13481759 S
atom       1.65680663      2.02334610      1.06459968 S
atom      -1.50474079      3.70785837      2.59969022 Mo
atom       0.07459587      4.66628934      4.16260888 S
atom       0.07458522      4.66626968      1.03674626 S
atom      -3.17354251      6.42553932      2.59966728 Mo
atom      -1.64247261      7.36637702      4.17519733 S
atom      -1.64246973      7.36638292      1.02413669 S
atom      -4.76692640      9.15517524      2.59968399 Mo
atom      -3.20536637     10.09011028      4.17048101 S
atom      -3.20537979     10.09012540      1.02888226 S
atom      -6.32409033     11.89022235      2.59971682 Mo
atom      -4.74934971     12.83846101      4.15926015 S
atom      -4.74937304     12.83846366      1.04015243 S
atom       3.19867669      1.02666601      2.59970719 Mo
atom       4.77794695      1.90492647      4.18308267 S
atom       4.77793770      1.90490369      1.01628694 S
atom       1.72579264      3.91200575      2.59965863 Mo
atom       3.39578570      4.95304699      4.10564066 S
atom       3.39566453      4.95277940      1.09374837 S
atom      -0.04277323      6.49476904      2.59967289 Mo
atom       1.45301468      7.40125426      4.17130206 S
atom       1.45306297      7.40122684      1.02808814 S
atom      -1.63521169      9.18385515      2.59967100 Mo
atom      -0.06502040     10.09913807      4.17521567 S
atom      -0.06501346     10.09914147      1.02412380 S
atom      -3.17676391     11.90988664      2.59969062 Mo
atom      -1.58904658     12.80733040      4.17045937 S
atom      -1.58905734     12.80732822      1.02890176 S
atom       6.33795758      0.96184788      2.59967914 Mo
atom       7.95683789      1.80846629      4.17072767 S
atom       7.95683597      1.80845060      1.02860493 S
atom       4.89241432      3.71563604      2.59966680 Mo
atom       6.46448154      4.50843440      4.19876073 S
atom       6.46444678      4.50844710      1.00055525 S
atom       4.54463231      6.94331233      4.10562484 S
atom       4.54477185      6.94360139      1.09369399 S
atom       1.48986015      9.14991656      2.59967069 Mo
atom       3.13187691      9.96275198      4.16266076 S
atom       3.13189755      9.96277462      1.03670011 S
atom      -0.01611686     11.89548335      2.59967676 Mo
atom       1.60748918     12.74276742      4.16846362 S
atom       1.60750726     12.74276062      1.03090319 S
atom       9.52605198      0.90566654      2.59967713 Mo
atom      11.10306319      1.83100803      4.16805888 S
atom      11.10308412      1.83098288      1.03130901 S
atom       7.99952471      3.62238500      2.59965628 Mo
atom       9.54896373      4.56666590      4.17066597 S
atom       9.54896585      4.56666439      1.02865383 S
atom       6.36471568      6.26624477      2.59966245 Mo
atom       7.87539857      7.27101177      4.18310349 S
atom       7.87540114      7.27103436      1.01624191 S
atom       4.61083376      8.91010743      2.59967982 Mo
atom       6.21178090      9.91434682      4.13481345 S
atom       6.21179470      9.91440246      1.06460516 S
atom       3.17187241     11.80962299      2.59969950 Mo
atom       4.75012226     12.73979674      4.16505256 S
atom       4.75014921     12.73978871      1.03438197 S
atom      12.67168196      0.92560747      2.59970603 Mo
atom      14.24880380      1.87601054      4.16507923 S
atom      14.24882128      1.87598340      1.03434377 S
atom      11.11566294      3.65936965      2.59966852 Mo
atom      12.67442823      4.59585980      4.16845658 S
atom      12.67444470      4.59584487      1.03089257 S
atom       9.47234271      6.39198235      2.59966562 Mo
atom      11.01971628      7.33147516      4.17045070 S
atom      11.01971578      7.33149165      1.02889492 S
atom       7.84607979      9.07776399      2.59969773 Mo
atom       9.41203940     10.05238599      4.15928840 S
atom       9.41202799     10.05241207      1.04011647 S
atom       6.29247407     11.81248936      2.59972947 Mo
atom       7.87479225     12.79688714      4.15351073 S
atom       7.87478522     12.79689061      1.04594970 S
# 
# What follows is the current estimated Hessian matrix constructed by the BFGS algorithm.
# This is NOT the true Hessian matrix of the system.
# If you do not want this information here, switch it off using the "hessian_to_restart_geometry" keyword.
# 
trust_radius             0.0003662556
hessian_file
