# 
# This is the geometry file that corresponds to the current relaxation step.
# If you do not want this file to be written, set the "write_restart_geometry" flag to .false.
#  aims_uuid : C2E64FC1-AE35-4B38-A3B6-60258D88AB96                                
# 
  set_vacuum_level        52.254965
lattice_vector     15.76960250      0.00000000      0.00000000
lattice_vector     -7.88732950     13.65525595      0.00000000
lattice_vector      0.00000000      0.00000000     99.30554027
atom       0.05349537      1.00403283      2.59977584 Mo
atom       1.65680548      2.02331865      4.13483890 S
atom       1.65674748      2.02322918      1.06462499 S
atom      -1.50480233      3.70789486      2.59969400 Mo
atom       0.07458713      4.66625232      4.16257310 S
atom       0.07459039      4.66617244      1.03672096 S
atom      -3.17351758      6.42547744      2.59964657 Mo
atom      -1.64244369      7.36634857      4.17516242 S
atom      -1.64246521      7.36635940      1.02409493 S
atom      -4.76685282      9.15522331      2.59969212 Mo
atom      -3.20525602     10.09005230      4.17048579 S
atom      -3.20530031     10.09009082      1.02887291 S
atom      -6.32406165     11.89020399      2.59976203 Mo
atom      -4.74931744     12.83841488      4.15931749 S
atom      -4.74936673     12.83841489      1.04015791 S
atom       3.19865177      1.02657088      2.59973373 Mo
atom       4.77790503      1.90491301      4.18307550 S
atom       4.77787853      1.90487506      1.01630882 S
atom       1.72580955      3.91189791      2.59967073 Mo
atom       3.39570935      4.95306299      4.10557425 S
atom       3.39553858      4.95257340      1.09372706 S
atom      -0.04279496      6.49471724      2.59961733 Mo
atom       1.45303911      7.40124758      4.17119405 S
atom       1.45308509      7.40122020      1.02808680 S
atom      -1.63512290      9.18380762      2.59964392 Mo
atom      -0.06499784     10.09911938      4.17522034 S
atom      -0.06501265     10.09915073      1.02405405 S
atom      -3.17678512     11.90983861      2.59970336 Mo
atom      -1.58900764     12.80727452      4.17042462 S
atom      -1.58904038     12.80727483      1.02893530 S
atom       6.33792424      0.96182918      2.59968399 Mo
atom       7.95681657      1.80851819      4.17068644 S
atom       7.95681278      1.80849881      1.02863689 S
atom       4.89243500      3.71564342      2.59967077 Mo
atom       6.46440738      4.50848890      4.19881639 S
atom       6.46435358      4.50850926      1.00048520 S
atom       4.54455219      6.94333915      4.10552991 S
atom       4.54479393      6.94390343      1.09383136 S
atom       1.48982802      9.14997746      2.59962137 Mo
atom       3.13194785      9.96274721      4.16257250 S
atom       3.13198880      9.96280632      1.03673962 S
atom      -0.01603128     11.89544877      2.59966488 Mo
atom       1.60745468     12.74280342      4.16851140 S
atom       1.60749051     12.74280067      1.03084938 S
atom       9.52603072      0.90563354      2.59967799 Mo
atom      11.10300401      1.83106112      4.16804163 S
atom      11.10304568      1.83101858      1.03133869 S
atom       7.99936708      3.62247312      2.59965277 Mo
atom       9.54890759      4.56665381      4.17065010 S
atom       9.54891170      4.56665303      1.02865234 S
atom       6.36475120      6.26625005      2.59965646 Mo
atom       7.87542368      7.27106247      4.18308687 S
atom       7.87543092      7.27111514      1.01626812 S
atom       4.61104151      8.91009943      2.59963148 Mo
atom       6.21180581      9.91444958      4.13488723 S
atom       6.21186139      9.91455542      1.06457600 S
atom       3.17179394     11.80968765      2.59970158 Mo
atom       4.75009258     12.73980691      4.16506032 S
atom       4.75015427     12.73979834      1.03443514 S
atom      12.67165566      0.92559735      2.59972936 Mo
atom      14.24876827      1.87603639      4.16506762 S
atom      14.24880243      1.87597848      1.03440139 S
atom      11.11566908      3.65943856      2.59966156 Mo
atom      12.67440326      4.59585919      4.16848912 S
atom      12.67442511      4.59582711      1.03083715 S
atom       9.47236368      6.39196063      2.59966139 Mo
atom      11.01975638      7.33147511      4.17041424 S
atom      11.01973926      7.33150749      1.02892093 S
atom       7.84603789      9.07786145      2.59972514 Mo
atom       9.41209095     10.05235590      4.15931502 S
atom       9.41206122     10.05240733      1.04015206 S
atom       6.29254719     11.81254226      2.59977580 Mo
atom       7.87482174     12.79686708      4.15360435 S
atom       7.87481396     12.79687348      1.04595827 S
# 
# What follows is the current estimated Hessian matrix constructed by the BFGS algorithm.
# This is NOT the true Hessian matrix of the system.
# If you do not want this information here, switch it off using the "hessian_to_restart_geometry" keyword.
# 
trust_radius             0.0019354442
hessian_file
