# 
# This is the geometry file that corresponds to the current relaxation step.
# If you do not want this file to be written, set the "write_restart_geometry" flag to .false.
#  aims_uuid : BA6EA51A-7E03-4B4A-A0B5-188F8B350C64                                
# 
  set_vacuum_level        53.693710
lattice_vector     16.23865900      0.00000000      0.00000000
lattice_vector     -8.11989635     14.06215255      0.00000000
lattice_vector      0.00000000      0.00000000     99.93951163
atom_frac       0.03326834      0.06663600      0.02658551 Mo
atom_frac       0.16668677      0.13334265      0.04311519 Se
atom_frac       0.16670835      0.13335405      0.01005764 Se
atom_frac       0.03330321      0.26660779      0.02660720 Mo
atom_frac       0.16652928      0.33323985      0.04317540 Se
atom_frac       0.16650303      0.33349900      0.01004941 Se
atom_frac       0.03338906      0.46658404      0.02663501 Mo
atom_frac       0.16665034      0.53330008      0.04320539 Se
atom_frac       0.16671969      0.53343888      0.01008841 Se
atom_frac       0.03338751      0.66680828      0.02663503 Mo
atom_frac       0.16664991      0.73335061      0.04320527 Se
atom_frac       0.16671854      0.73327999      0.01008844 Se
atom_frac       0.03330278      0.86669837      0.02660722 Mo
atom_frac       0.16652888      0.93328895      0.04317540 Se
atom_frac       0.16650141      0.93300297      0.01004925 Se
atom_frac       0.23341954      0.06632673      0.02657958 Mo
atom_frac       0.36628367      0.13328287      0.04318455 Se
atom_frac       0.36588043      0.13226874      0.00989751 Se
atom_frac       0.23342078      0.26709564      0.02657972 Mo
atom_frac       0.36628415      0.33299955      0.04318489 Se
atom_frac       0.36588089      0.33361255      0.00989757 Se
atom_frac       0.23319356      0.46658426      0.02663500 Mo
atom_frac       0.36690036      0.53310019      0.04314679 Se
atom_frac       0.36665371      0.53334703      0.01010594 Se
atom_frac       0.23333352      0.66666842      0.02665454 Mo
atom_frac       0.36670141      0.73335067      0.04320526 Se
atom_frac       0.36656206      0.73328002      0.01008842 Se
atom_frac       0.23319289      0.86661293      0.02663486 Mo
atom_frac       0.36689960      0.93379858      0.04314664 Se
atom_frac       0.36665199      0.93330349      0.01010565 Se
atom_frac       0.43365578      0.06731312      0.02658147 Mo
atom_frac       0.56699957      0.13328232      0.04318453 Se
atom_frac       0.56638883      0.13226839      0.00989748 Se
atom_frac       0.42998756      0.26499599      0.02645400 Mo
atom_frac       0.56666480      0.33332832      0.04216823 Se
atom_frac       0.56666475      0.33332877      0.06441690 Se
atom_frac       0.56666548      0.33332996      0.01027615 Se
atom_frac       0.43365702      0.46634415      0.02658181 Mo
atom_frac       0.56700006      0.53371408      0.04318486 Se
atom_frac       0.56638866      0.53411823      0.00989778 Se
atom_frac       0.43341903      0.66680818      0.02663500 Mo
atom_frac       0.56676081      0.73347148      0.04317557 Se
atom_frac       0.56650221      0.73349713      0.01004938 Se
atom_frac       0.43341859      0.86661303      0.02663485 Mo
atom_frac       0.56676082      0.93328885      0.04317537 Se
atom_frac       0.56650228      0.93300294      0.01004924 Se
atom_frac       0.63290580      0.06632675      0.02657957 Mo
atom_frac       0.76665663      0.13334261      0.04311518 Se
atom_frac       0.76664653      0.13335410      0.01005763 Se
atom_frac       0.63500691      0.26499533      0.02645398 Mo
atom_frac       0.76671617      0.33299968      0.04318488 Se
atom_frac       0.76773239      0.33361250      0.00989758 Se
atom_frac       0.63500323      0.47000861      0.02645417 Mo
atom_frac       0.76671427      0.53371379      0.04318488 Se
atom_frac       0.76773000      0.53411811      0.00989781 Se
atom_frac       0.63290570      0.66658128      0.02657987 Mo
atom_frac       0.76665681      0.73331269      0.04311543 Se
atom_frac       0.76664582      0.73329055      0.01005784 Se
atom_frac       0.63339419      0.86669816      0.02660719 Mo
atom_frac       0.76676302      0.93338136      0.04315079 Se
atom_frac       0.76664371      0.93332108      0.01003571 Se
atom_frac       0.83336633      0.06663602      0.02658550 Mo
atom_frac       0.96661928      0.13323777      0.04315079 Se
atom_frac       0.96667919      0.13335754      0.01003565 Se
atom_frac       0.83367333      0.26709569      0.02657973 Mo
atom_frac       0.96671123      0.33323976      0.04317541 Se
atom_frac       0.96699664      0.33349894      0.01004942 Se
atom_frac       0.83268585      0.46634431      0.02658183 Mo
atom_frac       0.96620050      0.53310019      0.04314682 Se
atom_frac       0.96669406      0.53334713      0.01010596 Se
atom_frac       0.83367425      0.66658097      0.02657989 Mo
atom_frac       0.96671135      0.73347154      0.04317560 Se
atom_frac       0.96699571      0.73349727      0.01004940 Se
atom_frac       0.83336538      0.86673230      0.02658563 Mo
atom_frac       0.96661903      0.93338139      0.04315080 Se
atom_frac       0.96667817      0.93332109      0.01003573 Se
# 
# What follows is the current estimated Hessian matrix constructed by the BFGS algorithm.
# This is NOT the true Hessian matrix of the system.
# If you do not want this information here, switch it off using the "hessian_to_restart_geometry" keyword.
# 
