# 
# This is the geometry file that corresponds to the current relaxation step.
# If you do not want this file to be written, set the "write_restart_geometry" flag to .false.
#  aims_uuid : 4E655CFC-03E0-479F-A7E1-ED32C606B616                                
# 
  set_vacuum_level       103.288256
lattice_vector     16.31232095      0.00000000      0.00000000
lattice_vector     -8.15665875     14.12581815      0.00000000
lattice_vector      0.00000000      0.00000000    103.32585319
atom      -0.00002610      0.94075451     51.62766912 Mo
atom       1.63121908      1.88247426     53.29006360 Se
atom       1.63117769      1.88242366     49.96519791 Se
atom      -1.63136426      3.76591600     51.62763888 Mo
atom      -0.00011100      4.70761048     53.29004247 Se
atom      -0.00015686      4.70763112     49.96518897 Se
atom      -3.26268531      6.59109018     51.62767858 Mo
atom      -1.63144706      7.53276189     53.29008574 Se
atom      -1.63148826      7.53279595     49.96522024 Se
atom      -4.89401686      9.41624866     51.62771665 Mo
atom      -3.26277260     10.35794893     53.29012275 Se
atom      -3.26281619     10.35792719     49.96525304 Se
atom      -6.52536470     12.24138857     51.62771773 Mo
atom      -4.89411332     13.18313800     53.29008915 Se
atom      -4.89415942     13.18308251     49.96524677 Se
atom       3.26244831      0.94075208     51.62762157 Mo
atom       4.89363020      1.88245670     53.29003757 Se
atom       4.89367560      1.88245489     49.96519940 Se
atom       1.63111309      3.76591332     51.62759366 Mo
atom       3.26229563      4.70757451     53.29001923 Se
atom       3.26234084      4.70765045     49.96518656 Se
atom      -0.00023172      6.59108103     51.62762875 Mo
atom       1.63097296      7.53272916     53.29005454 Se
atom       1.63101524      7.53281729     49.96522684 Se
atom      -1.63156158      9.41624145     51.62765615 Mo
atom      -0.00036482     10.35791858     53.29010488 Se
atom      -0.00031963     10.35794868     49.96525358 Se
atom      -3.26289272     12.24140628     51.62767094 Mo
atom      -1.63169012     13.18310735     53.29006971 Se
atom      -1.63164325     13.18309653     49.96524255 Se
atom       6.52488671      0.94075413     51.62764920 Mo
atom       8.15608654      1.88244174     53.29007819 Se
atom       8.15616003      1.88245757     49.96524972 Se
atom       4.89356014      3.76592081     51.62762637 Mo
atom       6.52476570      4.70757352     53.29006453 Se
atom       6.52483645      4.70766249     49.96523680 Se
atom       3.26224172      6.59107836     51.62766130 Mo
atom       4.89342462      7.53273091     53.29010902 Se
atom       4.89349899      7.53283580     49.96526904 Se
atom       1.63090559      9.41624820     51.62769449 Mo
atom       3.26209650     10.35791873     53.29014078 Se
atom       3.26216852     10.35796380     49.96530573 Se
atom      -0.00042396     12.24138076     51.62769597 Mo
atom       1.63075959     13.18310698     53.29011684 Se
atom       1.63083067     13.18311031     49.96528651 Se
atom       9.78738639      0.94077187     51.62770053 Mo
atom      11.41859225      1.88247348     53.29014056 Se
atom      11.41859923      1.88244896     49.96526095 Se
atom       8.15605301      3.76591938     51.62766359 Mo
atom       9.78725503      4.70759749     53.29012081 Se
atom       9.78726509      4.70764789     49.96525363 Se
atom       6.52470960      6.59108671     51.62770785 Mo
atom       8.15592894      7.53275266     53.29015604 Se
atom       8.15593574      7.53281656     49.96529356 Se
atom       4.89338685      9.41624290     51.62774949 Mo
atom       6.52458708     10.35793014     53.29020036 Se
atom       6.52460030     10.35794607     49.96531342 Se
atom       3.26204294     12.24141201     51.62775460 Mo
atom       4.89326909     13.18312470     53.29016288 Se
atom       4.89327895     13.18309744     49.96531441 Se
atom      13.04981865      0.94075288     51.62771552 Mo
atom      14.68106217      1.88245899     53.29009435 Se
atom      14.68103269      1.88242620     49.96525333 Se
atom      11.41849599      3.76590992     51.62768610 Mo
atom      13.04972505      4.70759876     53.29008197 Se
atom      13.04970276      4.70762788     49.96523582 Se
atom       9.78716292      6.59107593     51.62771718 Mo
atom      11.41839254      7.53275822     53.29012603 Se
atom      11.41836705      7.53279765     49.96527021 Se
atom       8.15582401      9.41625245     51.62776467 Mo
atom       9.78706778     10.35792424     53.29016116 Se
atom       9.78703857     10.35792553     49.96530038 Se
atom       6.52451322     12.24138681     51.62776926 Mo
atom       8.15573328     13.18314034     53.29013301 Se
atom       8.15570624     13.18309340     49.96529812 Se
# 
# What follows is the current estimated Hessian matrix constructed by the BFGS algorithm.
# This is NOT the true Hessian matrix of the system.
# If you do not want this information here, switch it off using the "hessian_to_restart_geometry" keyword.
# 
trust_radius             0.0008652098
hessian_file
