#
# temporary structure-file for finite-difference calculation of forces
# displacement   0.0025 of \# atom    57 direction     0
#
lattice_vector   16.60000000    0.00000000    0.00000000
lattice_vector   -8.30000000   14.37602170    0.00000000
lattice_vector    0.00000000    0.00000000  100.00000000
atom    0.01900551    0.98697170    2.68614149  Mo
atom    1.72645163    2.05862033    4.26867985  Se
atom    1.64571439    1.92856703    0.95288134  Se
atom   -1.58038732    3.87952877    2.70157516  Mo
atom    0.29187024    4.96048914    4.26544775  Se
atom    0.01470303    4.80045726    0.92388997  Se
atom   -3.28567486    6.71099910    2.68614366  Mo
atom   -1.50383130    7.65386181    4.26868780  Se
atom   -1.65685528    7.64892811    0.95287853  Se
atom   -4.98271442    9.57579581    2.68554759  Mo
atom   -3.28477249   10.52374947    4.31672181  Se
atom   -3.33265736   10.53923991    1.00561077  Se
atom   -6.64848432   12.46089929    2.68553790  Mo
atom   -4.97858042   13.45739899    4.31673838  Se
atom   -4.98907952   13.40816398    1.00561554  Se
atom    3.32150004    0.99754778    2.62575374  Mo
atom    4.92171793    1.99700310    4.29899126  Se
atom    5.00791322    1.92778665    0.96890157  Se
atom    1.76542911    3.91819119    2.52266700  Mo
atom    3.35899281    4.80195385    0.81552022  Se
atom    0.12606272    6.75779109    2.52266383  Mo
atom    1.68809372    7.69610399    0.81548721  Se
atom   -1.62526274    9.56571821    2.62574726  Mo
atom    0.04041296   10.45189654    4.29895873  Se
atom    0.02348777   10.56112796    0.96885021  Se
atom   -3.31686472   12.46099637    2.67235989  Mo
atom   -1.66729213   13.41341256    4.34769101  Se
atom   -1.64885496   13.42405825    1.02133996  Se
atom    6.63387894    0.96926968    2.68669364  Mo
atom    8.27740204    1.91848921    4.37814322  Se
atom    8.31840570    1.92022157    1.05042405  Se
atom    4.89476467    3.86389970    2.58029108  Mo
atom    6.50679026    4.78038118    4.31676947  Se
atom    6.63714194    4.76652871    0.99387786  Se
atom    3.21106609    6.64599068    2.48290626  Mo
atom    4.73080366    7.52339063    4.26055225  Se
atom    4.92894928    7.63779166    0.94075255  Se
atom    1.64369350    9.49518999    2.58021721  Mo
atom    3.24335510   10.43297322    4.31674075  Se
atom    3.29652814   10.55277625    0.99378339  Se
atom    0.00637986   12.44852210    2.68668258  Mo
atom    1.65017259   13.39728151    4.37813519  Se
atom    1.67215825   13.43189748    1.05040816  Se
atom    9.96504298    0.96135227    2.73021250  Mo
atom   11.63106862    1.92320528    4.40455750  Se
atom   11.63544148    1.92573627    1.07793179  Se
atom    8.28032146    3.83288889    2.71050760  Mo
atom    9.94238264    4.79606547    4.38766426  Se
atom    9.97044501    4.78179657    1.06520904  Se
atom    6.55466408    6.67306587    2.65706159  Mo
atom    8.22128121    7.63510741    4.34740271  Se
atom    8.27547216    7.64591313    1.04187321  Se
atom    4.90634972    9.52804097    2.65703515  Mo
atom    6.57284147   10.49030799    4.34738892  Se
atom    6.60927959   10.53181040    1.04187552  Se
atom    3.30951210   12.44259747    2.71045874  Mo
atom    4.97469570   13.40035452    4.38762148  Se
atom    4.97888353   13.43177131    1.06518422  Se
atom   13.29691553    0.97124109    2.73923999  Mo
atom   14.99688893    1.96267535    4.37606853  Se
atom   14.94182028    1.94347686    1.06050964  Se
atom   11.63960395    3.84185896    2.73925254  Mo
atom   13.34821688    4.81831598    4.37606305  Se
atom   13.30404711    4.78022906    1.06052186  Se
atom    9.94534524    6.70222846    2.71546269  Mo
atom   11.64217156    7.66697151    4.35754532  Se
atom   11.61161537    7.64816133    1.03936441  Se
atom    8.26635086    9.56460282    2.70111068  Mo
atom    9.94847456   10.53572063    4.34838403  Se
atom    9.93467749   10.52775114    1.03375706  Se
atom    6.62697027   12.44979865    2.71544038  Mo
atom    8.31087137   13.43689025    4.35752849  Se
atom    8.27931563   13.41981540    1.03936000  Se
