lattice_vector     16.36921294     -0.00050996      0.00
lattice_vector     -8.18492289     14.17576738      0.00
lattice_vector     -0.00001698     -0.00020976     99.61289576
atom       0.00089906      0.95488030      2.66885196 W
atom       1.63662515      1.93364674      4.34310361 Se
atom       1.63715692      1.88910084      0.96499000 Se
atom      -1.62513714      3.80017682      2.66695781 W
atom       0.05699487      4.83051483      4.30636025 Se
atom      -0.01438184      4.74616042      0.93305766 Se
atom      -3.25068130      6.61564288      2.66815276 W
atom      -1.51659566      7.55601861      4.30752067 Se
atom      -1.62657149      7.53846620      0.93419009 Se
atom      -4.90197664      9.44635234      2.67238525 W
atom      -3.23570102     10.37235217      4.34658342 Se
atom      -3.27525918     10.39709671      0.96852783 Se
atom      -6.54797892     12.28560915      2.67426008 W
atom      -4.90767755     13.23186756      4.36428705 Se
atom      -4.90744576     13.23330504      0.98555738 Se
atom       3.27288608      0.95477165      2.66934422 W
atom       4.89509098      1.91031129      4.36901735 Se
atom       4.91791030      1.89552759      0.98631071 Se
atom       1.63680303      3.81594672      2.62273336 W
atom       3.21610001      4.83036858      4.30683726 Se
atom       3.28847402      4.74607665      0.93356923 Se
atom       0.11032567      6.67904111      2.55818720 W
atom       1.63701034      7.56116995      0.76115216 Se
atom      -1.60598280      9.43243836      2.62505358 W
atom       0.06291603     10.29183919      4.30904169 Se
atom       0.02476027     10.39865406      0.93578942 Se
atom      -3.26601406     12.27977376      2.67398272 W
atom      -1.62666122     13.20569980      4.37361878 Se
atom      -1.62932837     13.23488460      0.99090614 Se
atom       6.54476710      0.94311782      2.68910342 W
atom       8.17927217      1.88603610      4.38730310 Se
atom       8.18664758      1.89175933      1.00442832 Se
atom       4.89877479      3.79995556      2.66793959 W
atom       6.52459984      4.73721213      4.37483127 Se
atom       6.55348151      4.72244384      0.98870010 Se
atom       3.16322476      6.67894888      2.55865319 W
atom       4.78970084      7.55585004      4.30834706 Se
atom       4.90055134      7.53821183      0.93508634 Se
atom       1.63670881      9.32288379      2.55965504 W
atom       3.21007682     10.29175246      4.30939246 Se
atom       3.24905026     10.39857969      0.93612789 Se
atom       0.01112003     12.26513893      2.67131467 W
atom       1.63645629     13.20338317      4.37817035 Se
atom       1.63681528     13.23783871      0.99203773 Se
atom       9.82147899      0.93955319      2.69487772 W
atom      11.46329940      1.88590782      4.38761253 Se
atom      11.45665928      1.89167286      1.00471734 Se
atom       8.17996350      3.78251259      2.69615208 W
atom       9.82121664      4.72992455      4.38889280 Se
atom       9.82158958      4.72347694      1.00597410 Se
atom       6.52424029      6.61530071      2.66949582 W
atom       8.15811233      7.56188353      4.37216017 Se
atom       8.18391520      7.55235863      0.98946569 Se
atom       4.87936542      9.43224547      2.62583227 W
atom       6.50863590     10.37210718      4.34772316 Se
atom       6.54910513     10.39675258      0.96969958 Se
atom       3.26212114     12.26505200      2.67163828 W
atom       4.89949691     13.20551488      4.37427150 Se
atom       4.90301961     13.23469851      0.99158871 Se
atom      13.09818726      0.94294866      2.68976889 W
atom      14.74738766      1.91000610      4.37016245 Se
atom      14.72558128      1.89523129      0.98746641 Se
atom      11.46283036      3.78237774      2.69647340 W
atom      13.11779909      4.73702254      4.37558050 Se
atom      13.08976911      4.72226624      0.98949609 Se
atom       9.82138383      6.61827600      2.69222978 W
atom      11.48422456      7.56176136      4.37257969 Se
atom      11.45925807      7.55230566      0.98987598 Se
atom       8.17534802      9.44594750      2.67404135 W
atom       9.82104093     10.39006018      4.36484020 Se
atom       9.82154181     10.39199704      0.98611286 Se
atom       6.53928010     12.27949142      2.67509240 W
atom       8.18041706     13.23143826      4.36591677 Se
atom       8.18126779     13.23291273      0.98720367 Se
# 
# What follows is the current estimated Hessian matrix constructed by the BFGS algorithm.
# This is NOT the true Hessian matrix of the system.
# If you do not want this information here, switch it off using the "hessian_to_restart_geometry" keyword.
# 
