# 
# This is the geometry file that corresponds to the current relaxation step.
# If you do not want this file to be written, set the "write_restart_geometry" flag to .false.
#  aims_uuid : 46EB3769-0939-4D71-A834-B65A44B0F150                                
# 
  set_vacuum_level        53.450000
lattice_vector     15.81124747     -0.00114008     -0.00452561
lattice_vector     -7.90649690     13.69226202     -0.00112563
lattice_vector      0.00020344      0.00024709     99.95445633
atom      -0.00030787      0.91267943      2.59651990 W
atom       1.58184327      1.82605854      4.17551820 S
atom       1.58086228      1.82522820      1.01529687 S
atom      -1.58138518      3.65063972      2.59801584 W
atom      -0.00034512      4.56337095      4.17894128 S
atom      -0.00351755      4.56529143      1.01585781 S
atom      -3.16140855      6.38951735      2.59971725 W
atom      -1.58108118      7.30246059      4.18185315 S
atom      -1.58200390      7.30315333      1.01826702 S
atom      -4.74352095      9.12931879      2.59947142 W
atom      -3.16266943     10.04130391      4.18158671 S
atom      -3.16224998     10.03975720      1.01804706 S
atom      -6.32582715     11.86691073      2.59723627 W
atom      -4.74485946     12.77963033      4.17820746 S
atom      -4.74446616     12.77556159      1.01515564 S
atom       3.16449964      0.90974828      2.59461330 W
atom       4.74136379      1.82603274      4.17633808 S
atom       4.74119203      1.81257789      1.00346717 S
atom       1.57957616      3.65448553      2.59439155 W
atom       3.16166850      4.56180237      4.17608886 S
atom       3.15011881      4.56786386      1.00317724 S
atom      -0.00166318      6.38931630      2.59879974 W
atom       1.58408785      7.30084616      4.17672393 S
atom       1.57839819      7.30282861      1.01726602 S
atom      -1.58173166      9.12792869      2.60024547 W
atom       0.00006887     10.04100025      4.18073753 S
atom      -0.00214122     10.03961346      1.01716335 S
atom      -3.16383406     11.86536905      2.59835182 W
atom      -1.58153037     12.78268302      4.17639221 S
atom      -1.58234350     12.77650217      1.01692894 S
atom       6.32442926      0.91532739      2.59342069 W
atom       7.90824881      1.82579840      4.17558899 S
atom       7.90678192      1.81235568      1.00268726 S
atom       4.71628959      3.63530523      2.58398487 W
atom       6.32454616      4.56380032      4.12704675 S
atom       6.32487939      4.56431432      6.07843117 S
atom       6.32377420      4.56299967      1.03352800 S
atom       3.16448391      6.38772133      2.59281970 W
atom       4.74492354      7.30406804      4.17494683 S
atom       4.73279925      7.30908080      1.00206659 S
atom       1.58005862      9.12890311      2.59765237 W
atom       3.16260832     10.04165175      4.17667219 S
atom       3.15827034     10.04151329      1.01353906 S
atom      -0.00000470     11.86513783      2.59756601 W
atom       1.58186911     12.77910075      4.17660337 S
atom       1.57971137     12.77519214      1.01352802 S
atom       9.48430962      0.90926453      2.59302749 W
atom      11.06784957      1.82535300      4.17303995 S
atom      11.06694866      1.82456325      1.01279589 S
atom       7.93214121      3.63507439      2.58319779 W
atom       9.48764806      4.56138073      4.17441196 S
atom       9.49738124      4.56739159      1.00151784 S
atom       6.32405174      6.41994617      2.58287919 W
atom       7.90405662      7.30382774      4.17413171 S
atom       7.91439581      7.30878480      1.00121338 S
atom       4.73912325      9.12690217      2.59214275 W
atom       6.32432314     10.04005999      4.17219980 S
atom       6.32344113     10.03933939      1.01193934 S
atom       3.16199564     11.86624892      2.59462077 W
atom       4.74384312     12.77937020      4.17427509 S
atom       4.74186652     12.77808051      1.01150212 S
atom      12.64910367      0.91179348      2.59304088 W
atom      14.23051788      1.82399630      4.17425844 S
atom      14.22950393      1.82440995      1.01146289 S
atom      11.06886113      3.65379174      2.59186008 W
atom      12.64976633      4.56245431      4.17540448 S
atom      12.65097491      4.56428863      1.01234577 S
atom       9.48365774      6.38728023      2.59108858 W
atom      11.06497110      7.30016435      4.17405662 S
atom      11.06881778      7.30207118      1.01459052 S
atom       7.90864053      9.12661877      2.59126715 W
atom       9.48605746     10.04124697      4.17484729 S
atom       9.48854676     10.04095600      1.01178409 S
atom       6.32371372     11.86594187      2.59202718 W
atom       7.90451920     12.77917337      4.17328234 S
atom       7.90460519     12.77780340      1.01049030 S
# 
# What follows is the current estimated Hessian matrix constructed by the BFGS algorithm.
# This is NOT the true Hessian matrix of the system.
# If you do not want this information here, switch it off using the "hessian_to_restart_geometry" keyword.
# 
trust_radius             0.0002612774
hessian_file
