# 
# This is the geometry file that corresponds to the current relaxation step.
# If you do not want this file to be written, set the "write_restart_geometry" flag to .false.
#  aims_uuid : 150D25FB-401C-4046-ADD1-075E25769077                                
# 
  set_vacuum_level        53.450000
lattice_vector     15.81124747     -0.00114008     -0.00452561
lattice_vector     -7.90649690     13.69226202     -0.00112563
lattice_vector      0.00020344      0.00024709     99.95445633
atom      -0.00030248      0.91269174      2.59663763 W
atom       1.58194493      1.82608515      4.17554342 S
atom       1.58078335      1.82521322      1.01530073 S
atom      -1.58138533      3.65063585      2.59815476 W
atom      -0.00022815      4.56335408      4.17897826 S
atom      -0.00358306      4.56525419      1.01591755 S
atom      -3.16141760      6.38951620      2.59984338 W
atom      -1.58107225      7.30241134      4.18194036 S
atom      -1.58205136      7.30316017      1.01839334 S
atom      -4.74353797      9.12935827      2.59956635 W
atom      -3.16272062     10.04136399      4.18169116 S
atom      -3.16221257     10.03977505      1.01818336 S
atom      -6.32585571     11.86693069      2.59733428 W
atom      -4.74483720     12.77971030      4.17823544 S
atom      -4.74448051     12.77554300      1.01520589 S
atom       3.16450050      0.90977000      2.59454732 W
atom       4.74140683      1.82614924      4.17616932 S
atom       4.74114121      1.81246756      1.00329048 S
atom       1.57960447      3.65453606      2.59432555 W
atom       3.16177373      4.56181371      4.17589208 S
atom       3.14999218      4.56788966      1.00299151 S
atom      -0.00165436      6.38931584      2.59885435 W
atom       1.58419017      7.30074980      4.17672727 S
atom       1.57832934      7.30287517      1.01727530 S
atom      -1.58168039      9.12792746      2.60037400 W
atom       0.00008638     10.04097042      4.18085893 S
atom      -0.00212929     10.03956560      1.01731624 S
atom      -3.16381955     11.86537638      2.59839308 W
atom      -1.58155851     12.78284741      4.17637941 S
atom      -1.58232441     12.77635858      1.01694899 S
atom       6.32445539      0.91533644      2.59327118 W
atom       7.90816917      1.82589495      4.17544689 S
atom       7.90686917      1.81223931      1.00258002 S
atom       4.71626029      3.63531249      2.58371034 W
atom       6.32454319      4.56382136      4.12664599 S
atom       6.32485996      4.56434602      6.07801664 S
atom       6.32355349      4.56301426      1.03319276 S
atom       3.16449587      6.38770510      2.59269155 W
atom       4.74495146      7.30396996      4.17480916 S
atom       4.73274578      7.30915851      1.00193215 S
atom       1.58008039      9.12889178      2.59773251 W
atom       3.16268043     10.04159504      4.17678052 S
atom       3.15827231     10.04158503      1.01361348 S
atom       0.00001853     11.86515361      2.59763974 W
atom       1.58183022     12.77917496      4.17667980 S
atom       1.57973446     12.77505926      1.01363280 S
atom       9.48433807      0.90929397      2.59300414 W
atom      11.06776173      1.82537639      4.17312158 S
atom      11.06700375      1.82447549      1.01281406 S
atom       7.93214582      3.63511039      2.58291617 W
atom       9.48751791      4.56145690      4.17427243 S
atom       9.49755050      4.56737169      1.00139903 S
atom       6.32402042      6.41992503      2.58259300 W
atom       7.90395980      7.30376125      4.17397087 S
atom       7.91449070      7.30878135      1.00104687 S
atom       4.73912332      9.12688542      2.59217050 W
atom       6.32434483     10.03996859      4.17222404 S
atom       6.32341621     10.03941572      1.01201015 S
atom       3.16202219     11.86623243      2.59478707 W
atom       4.74385758     12.77936675      4.17447320 S
atom       4.74186865     12.77809770      1.01166871 S
atom      12.64910030      0.91177832      2.59321279 W
atom      14.23053710      1.82402903      4.17444078 S
atom      14.22948304      1.82439234      1.01165558 S
atom      11.06888499      3.65378129      2.59188700 W
atom      12.64969840      4.56241699      4.17549397 S
atom      12.65101873      4.56430192      1.01243602 S
atom       9.48365157      6.38728720      2.59100170 W
atom      11.06489829      7.30014229      4.17408847 S
atom      11.06890655      7.30209663      1.01465367 S
atom       7.90864875      9.12661742      2.59123813 W
atom       9.48602164     10.04119770      4.17489666 S
atom       9.48858293     10.04098635      1.01180701 S
atom       6.32370853     11.86593302      2.59218355 W
atom       7.90453455     12.77917748      4.17343829 S
atom       7.90457595     12.77779715      1.01060992 S
# 
# What follows is the current estimated Hessian matrix constructed by the BFGS algorithm.
# This is NOT the true Hessian matrix of the system.
# If you do not want this information here, switch it off using the "hessian_to_restart_geometry" keyword.
# 
trust_radius             0.0005296690
hessian_file
