# 
# This is the geometry file that corresponds to the current relaxation step.
# If you do not want this file to be written, set the "write_restart_geometry" flag to .false.
#  aims_uuid : EB507950-439B-4F62-A70A-3E189D91B59C                                
# 
  set_vacuum_level        52.822077
lattice_vector     16.29568820      0.00000000      0.00000000
lattice_vector     -8.14028310     14.11790945      0.00000000
lattice_vector      0.00000000      0.00000000    100.31494303
atom_frac       0.03333922      0.06665789      0.02656240 W
atom_frac       0.16666477      0.13333638      0.04317523 Se
atom_frac       0.16666359      0.13333274      0.00994950 Se
atom_frac       0.03333828      0.26666222      0.02656240 W
atom_frac       0.16666549      0.33333641      0.04317475 Se
atom_frac       0.16666348      0.33333716      0.00994983 Se
atom_frac       0.03333994      0.46666122      0.02656233 W
atom_frac       0.16666466      0.53333746      0.04317496 Se
atom_frac       0.16666478      0.53333758      0.00994973 Se
atom_frac       0.03333789      0.66665937      0.02656253 W
atom_frac       0.16666550      0.73333605      0.04317502 Se
atom_frac       0.16666236      0.73333399      0.00994970 Se
atom_frac       0.03333810      0.86666200      0.02656259 W
atom_frac       0.16666514      0.93333555      0.04317476 Se
atom_frac       0.16666406      0.93333606      0.00995023 Se
atom_frac       0.23333648      0.06665984      0.02656250 W
atom_frac       0.36666516      0.13333624      0.04317480 Se
atom_frac       0.36666209      0.13333623      0.00994977 Se
atom_frac       0.23333576      0.26665802      0.02656213 W
atom_frac       0.36666100      0.33333397      0.04317443 Se
atom_frac       0.36666293      0.33333600      0.00994979 Se
atom_frac       0.23333787      0.46666052      0.02656234 W
atom_frac       0.36666432      0.53333591      0.04317468 Se
atom_frac       0.36666504      0.53333703      0.00994995 Se
atom_frac       0.23333882      0.66666072      0.02656231 W
atom_frac       0.36666665      0.73333608      0.04317460 Se
atom_frac       0.36666520      0.73333529      0.00994976 Se
atom_frac       0.23333824      0.86665611      0.02656235 W
atom_frac       0.36666532      0.93333710      0.04317457 Se
atom_frac       0.36666219      0.93333524      0.00994967 Se
atom_frac       0.43333881      0.06666205      0.02656206 W
atom_frac       0.56666394      0.13333845      0.04317435 Se
atom_frac       0.56666522      0.13333709      0.00994972 Se
atom_frac       0.43333702      0.26665848      0.02656224 W
atom_frac       0.56666362      0.33333680      0.04317474 Se
atom_frac       0.56666268      0.33333829      0.00994973 Se
atom_frac       0.43333811      0.46665946      0.02656222 W
atom_frac       0.56666363      0.53333788      0.04317485 Se
atom_frac       0.56666591      0.53333946      0.00994975 Se
atom_frac       0.43333974      0.66665965      0.02656224 W
atom_frac       0.56666331      0.73333588      0.04317516 Se
atom_frac       0.56666521      0.73333742      0.00994940 Se
atom_frac       0.43333648      0.86665871      0.02656204 W
atom_frac       0.56666355      0.93333495      0.04317456 Se
atom_frac       0.56666519      0.93333564      0.00994993 Se
atom_frac       0.63333812      0.06665968      0.02656224 W
atom_frac       0.76666179      0.13333502      0.04317492 Se
atom_frac       0.76666560      0.13333697      0.00994989 Se
atom_frac       0.63333867      0.26666275      0.02656201 W
atom_frac       0.76666384      0.33333598      0.04317476 Se
atom_frac       0.76666675      0.33333772      0.00994964 Se
atom_frac       0.63333711      0.46666110      0.02656240 W
atom_frac       0.76666481      0.53333694      0.04317484 Se
atom_frac       0.76666420      0.53333772      0.00995021 Se
atom_frac       0.63333757      0.66666212      0.02656241 W
atom_frac       0.76666368      0.73333748      0.04317496 Se
atom_frac       0.76666534      0.73333871      0.00995025 Se
atom_frac       0.63333736      0.86665805      0.02656235 W
atom_frac       0.76666346      0.93333619      0.04317501 Se
atom_frac       0.76666408      0.93333665      0.00994995 Se
atom_frac       0.83333800      0.06666001      0.02656248 W
atom_frac       0.96666635      0.13333760      0.04317459 Se
atom_frac       0.96666566      0.13333598      0.00995033 Se
atom_frac       0.83333757      0.26665828      0.02656238 W
atom_frac       0.96666453      0.33333707      0.04317491 Se
atom_frac       0.96666393      0.33333646      0.00994981 Se
atom_frac       0.83333660      0.46665991      0.02656237 W
atom_frac       0.96666477      0.53333611      0.04317477 Se
atom_frac       0.96666412      0.53333637      0.00995006 Se
atom_frac       0.83333939      0.66666166      0.02656267 W
atom_frac       0.96666601      0.73333945      0.04317509 Se
atom_frac       0.96666465      0.73333821      0.00995018 Se
atom_frac       0.83333849      0.86666260      0.02656262 W
atom_frac       0.96666471      0.93333788      0.04317526 Se
atom_frac       0.96666271      0.93333606      0.00994981 Se
# 
# What follows is the current estimated Hessian matrix constructed by the BFGS algorithm.
# This is NOT the true Hessian matrix of the system.
# If you do not want this information here, switch it off using the "hessian_to_restart_geometry" keyword.
# 
