# 
# This is the geometry file that corresponds to the current relaxation step.
# If you do not want this file to be written, set the "write_restart_geometry" flag to .false.
#  aims_uuid : 109D2A83-AB37-47E3-AF91-5DC106810D29                                
# 
lattice_vector     15.72118630     -0.00130770      0.00000000
lattice_vector     -7.86163315     13.61413775      0.00000000
lattice_vector      0.00000000      0.00000000    103.10805205
atom       7.07876685     13.17107444     51.55402596 Mo
atom       0.78821480      0.45243597     53.11198262 S
atom       0.78821479      0.45243597     49.99606943 S
atom      13.36127840      2.26872431     51.55402596 Mo
atom      -0.78575573      3.18283861     53.10834204 S
atom      -0.78575574      3.18283861     49.99971001 S
atom      11.79051332      4.98888391     51.55402596 Mo
atom      -2.35290772      5.89669279     53.10834146 S
atom      -2.35290773      5.89669279     49.99971059 S
atom      10.23118205      7.71203806     51.55402596 Mo
atom      -3.93096104      8.62473258     53.11197970 S
atom      -3.93096105      8.62473258     49.99607235 S
atom       8.66780740     10.44896343     51.55402596 Mo
atom      -5.49380903     11.35049289     53.11395594 S
atom      -5.49380904     11.35049289     49.99409611 S
atom      -5.49995356     13.15814950     51.55402596 Mo
atom       3.93025655      0.44248347     53.11395920 S
atom       3.93025654      0.44248347     49.99409285 S
atom       0.77813059      2.25831678     51.55402596 Mo
atom       2.35363053      3.14659660     53.10442814 S
atom       2.35363052      3.14659660     50.00362391 S
atom      -0.77220719      4.99996701     51.55402596 Mo
atom       0.81943841      5.91865223     53.09759367 S
atom       0.81943840      5.91865223     50.01045838 S
atom      -2.37184926      7.71314838     51.55402596 Mo
atom      -0.81470162      8.63310058     53.10447288 S
atom      -0.81470163      8.63310058     50.00357917 S
atom      -3.93117015     10.44142707     51.55402596 Mo
atom      -2.36860016     11.35027301     53.11396587 S
atom      -2.36860017     11.35027301     49.99408617 S
atom      -2.36276724     13.15790850     51.55402596 Mo
atom       7.07230752      0.45191877     53.11198828 S
atom       7.07230751      0.45191877     49.99606377 S
atom       3.93014069      2.24320160     51.55402596 Mo
atom       5.50661657      3.14622150     53.10447658 S
atom       5.50661656      3.14622150     50.00357547 S
atom       2.39970492      4.96622308     51.55402596 Mo
atom       3.93005494      5.82342180     53.11519839 S
atom       3.93005494      5.82342180     49.99285366 S
atom       0.78428944      7.76321024     51.55402596 Mo
atom       2.29209767      8.65948753     53.11517382 S
atom       2.29209766      8.65948752     49.99287822 S
atom      -0.80897873     10.44986618     51.55402596 Mo
atom       0.76152529     11.36318682     53.10449959 S
atom       0.76152528     11.36318682     50.00355246 S
atom       0.77968837     13.17164713     51.55402596 Mo
atom      10.22392168      0.44933754     53.10833041 S
atom      10.22392167      0.44933755     49.99972164 S
atom       7.08211017      2.25776147     51.55402596 Mo
atom       8.64597019      3.18199102     53.10834703 S
atom       8.64597018      3.18199102     49.99970502 S
atom       5.46030717      4.96576378     51.55402596 Mo
atom       7.04043029      5.91798392     53.09761441 S
atom       7.04043028      5.91798392     50.01043765 S
atom       5.56710381      8.65894080     53.11519279 S
atom       5.56710380      8.65894080     49.99285926 S
atom       2.31439072     10.41345799     51.55402596 Mo
atom       3.92939163     11.30523579     53.09761861 S
atom       3.92939162     11.30523579     50.01043344 S
atom       3.92924007     13.14292269     51.55402596 Mo
atom      13.35780354      0.44906512     53.10833316 S
atom      13.35780353      0.44906512     49.99971890 S
atom      10.22014330      2.26897353     51.55402596 Mo
atom      11.79069637      3.17549260     53.10917094 S
atom      11.79069636      3.17549260     49.99888111 S
atom       8.63207736      4.99910092     51.55402596 Mo
atom      10.21270551      5.89560479     53.10834930 S
atom      10.21270550      5.89560479     49.99970275 S
atom       7.07498875      7.76253207     51.55402596 Mo
atom       8.67395088      8.63218874     53.10446482 S
atom       8.67395086      8.63218874     50.00358723 S
atom       5.54432330     10.41289917     51.55402596 Mo
atom       7.09718203     11.36252667     53.10444304 S
atom       7.09718202     11.36252667     50.00360901 S
# 
# What follows is the current estimated Hessian matrix constructed by the BFGS algorithm.
# This is NOT the true Hessian matrix of the system.
# If you do not want this information here, switch it off using the "hessian_to_restart_geometry" keyword.
# 
trust_radius             0.0002005654
hessian_file
