# 
# This is the geometry file that corresponds to the current relaxation step.
# If you do not want this file to be written, set the "write_restart_geometry" flag to .false.
#  aims_uuid : F34CBE09-0D7F-4852-AD5F-EEFB4B1FB7DF                                
# 
  set_vacuum_level        52.678676
lattice_vector     16.60000000      0.00000000      0.00000000
lattice_vector     -8.30000000     14.37602170      0.00000000
lattice_vector      0.00000000      0.00000000    100.00000000
atom       0.01909531      0.97156761      2.66850785 Mo
atom       1.67849738      1.86165373      4.33104685 Se
atom       1.70199398      1.94697340      1.05546979 Se
atom      -1.62873479      3.86259604      2.68902272 Mo
atom       0.03806724      4.91737699      4.28974371 Se
atom       0.09506669      4.87199028      1.12994947 Se
atom      -3.36271391      6.71601723      2.66481853 Mo
atom      -1.77942710      7.77604869      4.30073365 Se
atom      -1.77756192      7.72363846      0.98954428 Se
atom      -4.97434553      9.58394139      2.65881972 Mo
atom      -3.26118961     10.55805558      4.25622455 Se
atom      -3.33821155     10.52618603      0.98310431 Se
atom      -6.62894965     12.45580241      2.66343607 Mo
atom      -4.94501800     13.38959155      4.28405905 Se
atom      -4.97594584     13.42337107      1.03026423 Se
atom       3.34455654      0.94311259      2.68107088 Mo
atom       5.01329631      1.87510760      4.31690066 Se
atom       5.02540526      1.84841617      1.04646262 Se
atom       1.72208705      3.79531214      2.75643277 Mo
atom       3.28932693      4.79665246      4.27490515 Se
atom       3.46706232      4.83568449      1.19502800 Se
atom      -0.14198511      6.88477230      2.66149253 Mo
atom       1.21449351      8.15971337      4.46340674 Se
atom       1.57530421      7.74052035      1.23436373 Se
atom      -1.63868548      9.64097375      2.61545837 Mo
atom      -0.06507516     10.52317716      0.87298062 Se
atom      -3.28949693     12.44348977      2.62164331 Mo
atom      -1.59280869     13.30012322      4.24752741 Se
atom      -1.62732147     13.41120644      0.98187609 Se
atom       6.68041067      0.90448811      2.68507801 Mo
atom       8.32915464      1.87464649      4.31285564 Se
atom       8.32135316      1.88862958      1.04895353 Se
atom       5.03883798      3.75383148      2.66141115 Mo
atom       6.65661603      4.76257071      4.30321440 Se
atom       6.68259006      4.77798507      1.05047297 Se
atom       4.94690416      7.52797630      4.10460013 Se
atom       5.03562556      7.72523674      1.00514562 Se
atom       1.39419152      9.76889545      2.73922091 Mo
atom       3.30209284     10.47013472      4.21925573 Se
atom       3.25271866     10.45317587      1.06111188 Se
atom      -0.00378345     12.33999392      2.58862844 Mo
atom       1.62158325     13.28923934      4.24945345 Se
atom       1.64291588     13.39026051      0.98912983 Se
atom       9.96544976      0.90129915      2.67181661 Mo
atom      11.62787515      1.87935711      4.29634339 Se
atom      11.62976085      1.89349662      1.05191633 Se
atom       8.32802927      3.79923424      2.68355240 Mo
atom       9.98387576      4.77995780      4.30196429 Se
atom       9.98187167      4.76317152      1.04578201 Se
atom       6.71203027      6.69219129      2.69153606 Mo
atom       8.34243773      7.67223493      4.29975308 Se
atom       8.30538783      7.65697095      1.02345737 Se
atom       5.05756360      9.56129576      2.58685202 Mo
atom       6.63626122     10.50926410      4.28908447 Se
atom       6.69632437     10.57022538      1.00028326 Se
atom       3.30714968     12.42583636      2.62666261 Mo
atom       4.95868978     13.38688992      4.28109809 Se
atom       4.98852677     13.40858918      1.03160644 Se
atom      13.30359632      0.94625078      2.67130527 Mo
atom      14.95939435      1.93011640      4.30136529 Se
atom      14.96263211      1.94630916      1.05183044 Se
atom      11.64210064      3.81648772      2.67754916 Mo
atom      13.29410271      4.79908746      4.30596593 Se
atom      13.30423961      4.78232878      1.04963770 Se
atom       9.96691756      6.69307763      2.65651808 Mo
atom      11.59073657      7.67576867      4.30142609 Se
atom      11.59305586      7.66627590      1.02391513 Se
atom       8.30938454      9.57915069      2.65712702 Mo
atom       9.96859858     10.54008751      4.28992812 Se
atom       9.96315993     10.54230136      1.03006790 Se
atom       6.64226582     12.44520715      2.66853220 Mo
atom       8.30491025     13.41479758      4.28976383 Se
atom       8.30637636     13.42753988      1.04474256 Se
# 
# What follows is the current estimated Hessian matrix constructed by the BFGS algorithm.
# This is NOT the true Hessian matrix of the system.
# If you do not want this information here, switch it off using the "hessian_to_restart_geometry" keyword.
# 
trust_radius             0.2000000030
hessian_file
