lattice_vector      16.2956882     -0.00   -0.00
lattice_vector     -8.1402831      14.11790945      0.00
lattice_vector     -0.00      0.00    100.31494303
atom_frac 0.03373708 0.06736165 0.02678762 W
atom_frac 0.16819048 0.13641178 0.04358833 Se
atom_frac 0.16665139 0.13326882 0.00967613 Se
atom_frac 0.03476371 0.26807721 0.02675700 W
atom_frac 0.17387122 0.34076551 0.04320755 Se
atom_frac 0.16653496 0.33481414 0.00934393 Se
atom_frac 0.03476818 0.46668840 0.02675753 W
atom_frac 0.17387633 0.53303050 0.04320810 Se
atom_frac 0.16653833 0.53179153 0.00934393 Se
atom_frac 0.03373716 0.66637487 0.02678851 W
atom_frac 0.16819561 0.73170269 0.04358890 Se
atom_frac 0.16665149 0.73344768 0.00967700 Se
atom_frac 0.03333099 0.86666432 0.02679578 W
atom_frac 0.16691724 0.93342120 0.04375500 Se
atom_frac 0.16698181 0.93352211 0.00983640 Se
atom_frac 0.23362349 0.06736118 0.02678827 W
atom_frac 0.36643157 0.13477276 0.04384431 Se
atom_frac 0.36730388 0.13372941 0.00988583 Se
atom_frac 0.23459643 0.26919685 0.02630868 W
atom_frac 0.36686019 0.34076213 0.04320819 Se
atom_frac 0.36830806 0.33481549 0.00934474 Se
atom_frac 0.24233304 0.47116815 0.02564888 W
atom_frac 0.36671591 0.53340030 0.00760244 Se
atom_frac 0.23460321 0.66540056 0.02630910 W
atom_frac 0.36687274 0.72603021 0.04320808 Se
atom_frac 0.36830920 0.73356479 0.00934401 Se
atom_frac 0.23362496 0.86625988 0.02678872 W
atom_frac 0.36643606 0.93158243 0.04384451 Se
atom_frac 0.36730228 0.93364074 0.00988579 Se
atom_frac 0.43309618 0.06654626 0.02698240 W
atom_frac 0.56621050 0.13306751 0.04402369 Se
atom_frac 0.56686267 0.13347077 0.01006344 Se
atom_frac 0.43331076 0.26807594 0.02675830 W
atom_frac 0.56569510 0.33419777 0.04388689 Se
atom_frac 0.56693831 0.33315551 0.00989402 Se
atom_frac 0.42883563 0.47116835 0.02564956 W
atom_frac 0.55913080 0.53303247 0.04320812 Se
atom_frac 0.56528037 0.53178793 0.00934437 Se
atom_frac 0.42883938 0.65767924 0.02564885 W
atom_frac 0.55913411 0.72603101 0.04320748 Se
atom_frac 0.56528293 0.73356663 0.00934318 Se
atom_frac 0.43331342 0.86523468 0.02675771 W
atom_frac 0.56570273 0.93142618 0.04388593 Se
atom_frac 0.56693974 0.93385632 0.00989285 Se
atom_frac 0.63314933 0.06630200 0.02703608 W
atom_frac 0.76683177 0.13306568 0.04402249 Se
atom_frac 0.76662918 0.13347185 0.01006206 Se
atom_frac 0.63314787 0.26685265 0.02703730 W
atom_frac 0.76683295 0.33369092 0.04402376 Se
atom_frac 0.76662802 0.33323558 0.01006314 Se
atom_frac 0.63191967 0.46668575 0.02675819 W
atom_frac 0.76512458 0.53346551 0.04384429 Se
atom_frac 0.76636465 0.53279313 0.00988590 Se
atom_frac 0.63079535 0.66540120 0.02630841 W
atom_frac 0.76348207 0.73170682 0.04358756 Se
atom_frac 0.76682343 0.73344500 0.00967588 Se
atom_frac 0.63191853 0.86523569 0.02675669 W
atom_frac 0.76512162 0.93158373 0.04384250 Se
atom_frac 0.76636594 0.93364197 0.00988407 Se
atom_frac 0.83344777 0.06654873 0.02698048 W
atom_frac 0.96831131 0.13477289 0.04384289 Se
atom_frac 0.96645769 0.13373006 0.00988457 Se
atom_frac 0.83369802 0.26685036 0.02703622 W
atom_frac 0.96847613 0.33419888 0.04388576 Se
atom_frac 0.96624294 0.33315735 0.00989344 Se
atom_frac 0.83345170 0.46690288 0.02698208 W
atom_frac 0.96831709 0.53346420 0.04384414 Se
atom_frac 0.96645803 0.53279659 0.00988573 Se
atom_frac 0.83263483 0.66637505 0.02678799 W
atom_frac 0.96647476 0.73298058 0.04375497 Se
atom_frac 0.96657340 0.73311672 0.00983638 Se
atom_frac 0.83263406 0.86626151 0.02678700 W
atom_frac 0.96647200 0.93341968 0.04375420 Se
atom_frac 0.96657569 0.93352320 0.00983576 Se
