# 
# This is the geometry file that corresponds to the current relaxation step.
# If you do not want this file to be written, set the "write_restart_geometry" flag to .false.
#  aims_uuid : B41AF39E-DE5B-426B-A5DC-F45BF2ED40C6                                
# 
  set_vacuum_level        52.830928
lattice_vector     16.29568820      0.00000000      0.00000000
lattice_vector     -8.14028310     14.11790945      0.00000000
lattice_vector      0.00000000      0.00000000    100.31494303
atom_frac       0.03408861      0.06788007      0.02664997 W
atom_frac       0.16771936      0.13545109      0.04322458 Se
atom_frac       0.16772682      0.13545799      0.01007540 Se
atom_frac       0.03623010      0.26969706      0.02665008 W
atom_frac       0.17413501      0.34198024      0.04313146 Se
atom_frac       0.17414061      0.34198658      0.01016821 Se
atom_frac       0.03626556      0.46651292      0.02665010 W
atom_frac       0.17417667      0.53216069      0.04313570 Se
atom_frac       0.17418157      0.53216728      0.01016387 Se
atom_frac       0.03409743      0.66618811      0.02665001 W
atom_frac       0.16773015      0.73226682      0.04322439 Se
atom_frac       0.16773833      0.73227506      0.01007561 Se
atom_frac       0.03334042      0.86665735      0.02664997 W
atom_frac       0.16719424      0.93359483      0.04318869 Se
atom_frac       0.16720208      0.93360262      0.01011108 Se
atom_frac       0.23380989      0.06788445      0.02665000 W
atom_frac       0.36711019      0.13526157      0.04321128 Se
atom_frac       0.36711882      0.13526974      0.01008867 Se
atom_frac       0.23513110      0.27023378      0.02664996 W
atom_frac       0.36783369      0.34200989      0.04313450 Se
atom_frac       0.36784025      0.34201714      0.01016561 Se
atom_frac       0.25215046      0.47607017      0.02665030 W
atom_frac       0.23514100      0.66485877      0.02665001 W
atom_frac       0.36783735      0.72582464      0.04313556 Se
atom_frac       0.36784366      0.72583001      0.01016487 Se
atom_frac       0.23381352      0.86590390      0.02665000 W
atom_frac       0.36711529      0.93185318      0.04321084 Se
atom_frac       0.36712318      0.93186069      0.01008908 Se
atom_frac       0.43301196      0.06649935      0.02665007 W
atom_frac       0.56642201      0.13322060      0.04323112 Se
atom_frac       0.56643022      0.13322897      0.01006903 Se
atom_frac       0.43348042      0.26972465      0.02665001 W
atom_frac       0.56605662      0.33393640      0.04324838 Se
atom_frac       0.56606473      0.33394433      0.01005170 Se
atom_frac       0.42391388      0.47608056      0.02664995 W
atom_frac       0.55797179      0.53215862      0.04313498 Se
atom_frac       0.55797921      0.53216520      0.01016479 Se
atom_frac       0.42392345      0.64784018      0.02664968 W
atom_frac       0.55800593      0.72585758      0.04313178 Se
atom_frac       0.55801184      0.72586356      0.01016843 Se
atom_frac       0.43348994      0.86373900      0.02664995 W
atom_frac       0.56606629      0.93214447      0.04324796 Se
atom_frac       0.56607413      0.93215276      0.01005198 Se
atom_frac       0.63305643      0.06610345      0.02665006 W
atom_frac       0.76677967      0.13321954      0.04323103 Se
atom_frac       0.76678774      0.13322817      0.01006908 Se
atom_frac       0.63305164      0.26695095      0.02665009 W
atom_frac       0.76677732      0.33357550      0.04323109 Se
atom_frac       0.76678542      0.33358361      0.01006905 Se
atom_frac       0.63026248      0.46651588      0.02664999 W
atom_frac       0.76472591      0.53288299      0.04321106 Se
atom_frac       0.76473393      0.53289121      0.01008903 Se
atom_frac       0.62974909      0.66486040      0.02664996 W
atom_frac       0.76453588      0.73227334      0.04322421 Se
atom_frac       0.76454257      0.73228091      0.01007562 Se
atom_frac       0.63029381      0.86376709      0.02664993 W
atom_frac       0.76474333      0.93186512      0.04321161 Se
atom_frac       0.76475071      0.93187252      0.01008828 Se
atom_frac       0.83350072      0.06649876      0.02665001 W
atom_frac       0.96812936      0.13524663      0.04321189 Se
atom_frac       0.96813596      0.13525437      0.01008813 Se
atom_frac       0.83390279      0.26694828      0.02665006 W
atom_frac       0.96785755      0.33393149      0.04324812 Se
atom_frac       0.96786492      0.33393944      0.01005205 Se
atom_frac       0.83350057      0.46699036      0.02665000 W
atom_frac       0.96814449      0.53288197      0.04321093 Se
atom_frac       0.96815148      0.53288964      0.01008926 Se
atom_frac       0.83211157      0.66619007      0.02664995 W
atom_frac       0.96639711      0.73279901      0.04318885 Se
atom_frac       0.96640475      0.73280667      0.01011126 Se
atom_frac       0.83211613      0.86591044      0.02664993 W
atom_frac       0.96639733      0.93359408      0.04318885 Se
atom_frac       0.96640496      0.93360191      0.01011103 Se
# 
# What follows is the current estimated Hessian matrix constructed by the BFGS algorithm.
# This is NOT the true Hessian matrix of the system.
# If you do not want this information here, switch it off using the "hessian_to_restart_geometry" keyword.
# 
