# 
# This is the geometry file that corresponds to the current relaxation step.
# If you do not want this file to be written, set the "write_restart_geometry" flag to .false.
#  aims_uuid : E57764D6-4E23-45C3-A893-CD2BE3F9FACD                                
# 
lattice_vector     15.90000000      0.00000000      0.00000000
lattice_vector     -7.95000000     13.76980392      0.00000000
lattice_vector      0.00000000      0.00000000    100.00000000
atom       0.00004745      0.92646332      2.61021860 W
atom       1.59000769      1.87409171      4.16638896 S
atom       1.59000992      1.83535683      1.02698565 S
atom      -1.57938197      3.68917165      2.60869932 W
atom       0.04976469      4.67510656      4.13807923 S
atom      -0.01478865      4.60586492      0.99081519 S
atom      -3.15972015      6.42645141      2.60869182 W
atom      -1.49131459      7.34439457      4.13807479 S
atom      -1.58357121      7.32311765      0.99081137 S
atom      -4.76265435      9.17568569      2.61021848 W
atom      -3.14697799     10.07878884      4.16640060 S
atom      -3.18051734     10.09815359      1.02696941 S
atom      -6.36001450     11.93383766      2.61077210 W
atom      -4.76727939     12.85337533      4.18209172 S
atom      -4.76686382     12.85362541      1.03947209 S
atom       3.17996945      0.92645166      2.61022587 W
atom       4.75712590      1.85273657      4.19022666 S
atom       4.77673667      1.84083089      1.04470698 S
atom       1.58999825      3.70691663      2.56848358 W
atom       3.13024224      4.67508088      4.13809316 S
atom       3.19479418      4.60585138      0.99080245 S
atom       0.06660322      6.46436628      2.51543400 W
atom       1.59000637      7.34389769      0.89245693 S
atom      -1.55968960      9.16240238      2.56847574 W
atom       0.04891319     10.01218564      4.13806460 S
atom       0.02121406     10.10271763      0.99077872 S
atom      -3.17266643     11.92953997      2.61021509 W
atom      -1.58192079     12.83230885      4.19021596 S
atom      -1.58243575     12.85524388      1.04470010 S
atom       6.35849456      0.91711706      2.62743162 W
atom       7.94543433      1.83334673      4.20665285 S
atom       7.95205613      1.83717575      1.06009046 S
atom       4.75939207      3.68920869      2.60870447 W
atom       6.34052006      4.60117187      4.19402724 S
atom       6.36492100      4.58708203      1.04689604 S
atom       3.11339726      6.46431133      2.51544517 W
atom       4.67133379      7.34438098      4.13808156 S
atom       4.76356761      7.32307741      0.99080531 S
atom       1.58998838      9.10303074      2.51539646 W
atom       3.13106930     10.01219126      4.13806719 S
atom       3.15880176     10.10271674      0.99078466 S
atom       0.00963416     11.91603457      2.60868002 W
atom       1.58999435     12.82934885      4.19401534 S
atom       1.59000032     12.85751510      1.04687744 S
atom       9.53998462      0.91401588      2.63287716 W
atom      11.13457608      1.83332733      4.20665046 S
atom      11.12795230      1.83715328      1.06009440 S
atom       7.94658531      3.67396313      2.63288758 W
atom       9.54002472      4.59520855      4.20665935 S
atom       9.54002174      4.58755583      1.06009150 S
atom       6.33976493      6.42647125      2.60870348 W
atom       7.92906465      7.34666650      4.19022824 S
atom       7.94917382      7.33563770      1.04471044 S
atom       4.73965455      9.16236756      2.56847662 W
atom       6.32694268     10.07879605      4.16637713 S
atom       6.36049809     10.09815539      1.02699469 S
atom       3.17033434     11.91602765      2.60868687 W
atom       4.76189016     12.83229101      4.19022519 S
atom       4.76240601     12.85523041      1.04469724 S
atom      12.72151608      0.91711407      2.62743347 W
atom      14.32285702      1.85271745      4.19023214 S
atom      14.30324800      1.84081025      1.04470095 S
atom      11.13347681      3.67391236      2.63288352 W
atom      12.73948726      4.60117904      4.19402725 S
atom      12.71508846      4.58708385      1.04689190 S
atom       9.53999595      6.42764637      2.62743472 W
atom      11.15097041      7.34665792      4.19021392 S
atom      11.13084866      7.33562477      1.04471387 S
atom       7.94260862      9.17568464      2.61022319 W
atom       9.53999247     10.09472390      4.18210178 S
atom       9.53998645     10.09423580      1.03946605 S
atom       6.35268240     11.92958343      2.61022324 W
atom       7.94727686     12.85339200      4.18211693 S
atom       7.94684873     12.85363022      1.03945175 S
# 
# What follows is the current estimated Hessian matrix constructed by the BFGS algorithm.
# This is NOT the true Hessian matrix of the system.
# If you do not want this information here, switch it off using the "hessian_to_restart_geometry" keyword.
# 
trust_radius             0.0004427634
hessian_file
