lattice_vector      15.6725379     -0.000     -0.000
lattice_vector      -7.8363193      13.57134925      0.00
lattice_vector      0.0000      0.0000     99.83654525
atom_frac 0.03332129 0.06665391 0.02599162 W
atom_frac 0.16673374 0.13336668 0.04168217 S
atom_frac 0.16667341 0.13333704 0.01028756 S
atom_frac 0.03330034 0.26661914 0.02600821 W
atom_frac 0.16661480 0.33326955 0.04172048 S
atom_frac 0.16653257 0.33346435 0.01029525 S
atom_frac 0.03340070 0.46665487 0.02602630 W
atom_frac 0.16665434 0.53331024 0.04175091 S
atom_frac 0.16670891 0.53341972 0.01032246 S
atom_frac 0.03339580 0.66674210 0.02602628 W
atom_frac 0.16665565 0.73334521 0.04175064 S
atom_frac 0.16671000 0.73328971 0.01032265 S
atom_frac 0.03331399 0.86669995 0.02600819 W
atom_frac 0.16661696 0.93334717 0.04172091 S
atom_frac 0.16653450 0.93306995 0.01029469 S
atom_frac 0.23338164 0.06644949 0.02597699 W
atom_frac 0.36663099 0.13350409 0.04168820 S
atom_frac 0.36601185 0.13229315 0.01015776 S
atom_frac 0.23337905 0.26693238 0.02597706 W
atom_frac 0.36663218 0.33312646 0.04168781 S
atom_frac 0.36601267 0.33371884 0.01015821 S
atom_frac 0.23325839 0.46665536 0.02602626 W
atom_frac 0.36681561 0.53318604 0.04170739 S
atom_frac 0.36657733 0.53342556 0.01031922 S
atom_frac 0.23333785 0.66666930 0.02604301 W
atom_frac 0.36669106 0.73334516 0.04175148 S
atom_frac 0.36658175 0.73329004 0.01032191 S
atom_frac 0.23325398 0.86660157 0.02602617 W
atom_frac 0.36681501 0.93363193 0.04170755 S
atom_frac 0.36657661 0.93315399 0.01031885 S
atom_frac 0.43345483 0.06690752 0.02596842 W
atom_frac 0.56687326 0.13350756 0.04168834 S
atom_frac 0.56628221 0.13229497 0.01015786 S
atom_frac 0.43091573 0.26545764 0.02583976 W
atom_frac 0.56666659 0.33332965 0.04110186 S
atom_frac 0.56665814 0.33332123 0.06057294 S
atom_frac 0.56666745 0.33333283 0.01046717 S
atom_frac 0.43345778 0.46654924 0.02596856 W
atom_frac 0.56687552 0.53336715 0.04168812 S
atom_frac 0.56628469 0.53398789 0.01015834 S
atom_frac 0.43334674 0.66675024 0.02602633 W
atom_frac 0.56672895 0.73338420 0.04172154 S
atom_frac 0.56653487 0.73346582 0.01029453 S
atom_frac 0.43333863 0.86659812 0.02602626 W
atom_frac 0.56672828 0.93334324 0.04172059 S
atom_frac 0.56653394 0.93306694 0.01029530 S
atom_frac 0.63306217 0.06644591 0.02597720 W
atom_frac 0.76663354 0.13336908 0.04168134 S
atom_frac 0.76666361 0.13333923 0.01028881 S
atom_frac 0.63454284 0.26545696 0.02583975 W
atom_frac 0.76649064 0.33312480 0.04168880 S
atom_frac 0.76770473 0.33371756 0.01015766 S
atom_frac 0.63454457 0.46908269 0.02584000 W
atom_frac 0.76649578 0.53336476 0.04168834 S
atom_frac 0.76770779 0.53398587 0.01015824 S
atom_frac 0.63306078 0.66662172 0.02597733 W
atom_frac 0.76663161 0.73326647 0.04168220 S
atom_frac 0.76666124 0.73332587 0.01028807 S
atom_frac 0.63338032 0.86668622 0.02600829 W
atom_frac 0.76673346 0.93336627 0.04170867 S
atom_frac 0.76664942 0.93332400 0.01028700 S
atom_frac 0.83334603 0.06666214 0.02599172 W
atom_frac 0.96663842 0.13326649 0.04170880 S
atom_frac 0.96667976 0.13335025 0.01028670 S
atom_frac 0.83355796 0.26694583 0.02597726 W
atom_frac 0.96665604 0.33327036 0.04172146 S
atom_frac 0.96693171 0.33346517 0.01029447 S
atom_frac 0.83309661 0.46654131 0.02596864 W
atom_frac 0.96636993 0.53318537 0.04170783 S
atom_frac 0.96684669 0.53342347 0.01031887 S
atom_frac 0.83354511 0.66661611 0.02597731 W
atom_frac 0.96665485 0.73338605 0.04172028 S
atom_frac 0.96693013 0.73346675 0.01029561 S
atom_frac 0.83334430 0.86668060 0.02599176 W
atom_frac 0.96663089 0.93336731 0.04170942 S
atom_frac 0.96667180 0.93332487 0.01028607 S
