# 
# This is the geometry file that corresponds to the current relaxation step.
# If you do not want this file to be written, set the "write_restart_geometry" flag to .false.
#  aims_uuid : 1DDE9BFE-105E-4DDF-A033-1146B554BAD6                                
# 
  set_vacuum_level         0.690485
lattice_vector     16.35742505      0.00000000      0.00000000
lattice_vector     -8.17073830     14.17072870      0.00000000
lattice_vector      0.00000000      0.00000000    103.34910518
atom      -0.00153781      0.94056937     51.66361689 W
atom       1.63505521      1.88548373     53.33664886 Se
atom       1.63746854      1.88220508     49.98967044 Se
atom      -1.63294209      3.77376759     51.66012804 W
atom       0.00180968      4.71982077     53.33145954 Se
atom       0.00314214      4.72086791     49.98964922 Se
atom      -3.26795435      6.60533966     51.66349934 W
atom      -1.63305956      7.55336617     53.33662356 Se
atom      -1.63453717      7.55749791     49.98964558 Se
atom      -4.90067949      9.44545756     51.66487225 W
atom      -3.26712046     10.38598913     53.34232169 Se
atom      -3.26642834     10.38632353     49.99121387 Se
atom      -6.53285693     12.27608778     51.66458586 W
atom      -4.90272685     13.22270935     53.34210251 Se
atom      -4.90219867     13.22315612     49.99130691 Se
atom       3.27235980      0.93716181     51.66497995 W
atom       4.90722300      1.89274256     53.33164925 Se
atom       4.90659999      1.88561984     49.99491398 Se
atom       1.63813373      3.77087848     51.66015366 W
atom       3.26989587      4.71565247     53.34046541 Se
atom       3.26885071      4.70358208     49.97330010 Se
atom      -0.00024041      6.61210834     51.65998789 W
atom       1.63420008      7.55257524     53.34058680 Se
atom       1.62299783      7.55827089     49.97331208 Se
atom      -1.63370792      9.44647121     51.66480247 W
atom       0.01103199     10.38394694     53.33168615 Se
atom       0.00486289     10.38692499     49.99498709 Se
atom      -3.26652916     12.27657725     51.66397048 W
atom      -1.62828492     13.22278241     53.34181693 Se
atom      -1.62851712     13.22228297     49.99112721 Se
atom       6.54092848      0.93655967     51.66581081 W
atom       8.17898031      1.88589936     53.33634769 Se
atom       8.17663024      1.88158045     49.98934950 Se
atom       4.90830022      3.78765757     51.65879336 W
atom       6.54801001      4.71609191     53.34036053 Se
atom       6.54767593      4.70365705     49.97301343 Se
atom       3.22882850      6.58231519     51.64880596 W
atom       4.91073169      7.55361721     53.23217029 Se
atom       4.91302308      7.55353019     55.47356964 Se
atom       4.90993815      7.55358145     50.01689167 Se
atom       1.65146220      9.43616925     51.65863601 W
atom       3.27485676     10.39239371     53.34051627 Se
atom       3.26393004     10.39863610     49.97308969 Se
atom       0.00211474     12.27792945     51.66578594 W
atom       1.64288525     13.22227973     53.33633022 Se
atom       1.63817293     13.22201978     49.98948885 Se
atom       9.81480824      0.94174562     51.66427611 W
atom      11.45307540      1.88668177     53.33702469 Se
atom      11.45205252      1.88579371     49.98884022 Se
atom       8.17798663      3.77120442     51.66088797 W
atom       9.81525722      4.71972781     53.33119887 Se
atom       9.81497592      4.72048191     49.98932232 Se
atom       6.59082509      6.58254143     51.64829012 W
atom       8.18646628      7.55225201     53.34042731 Se
atom       8.19730836      7.55830871     49.97325422 Se
atom       4.91160102      9.49503115     51.64854832 W
atom       6.54943093     10.39226418     53.34053873 Se
atom       6.55969553     10.39881984     49.97330940 Se
atom       3.27410740     12.27648699     51.66092104 W
atom       4.91364901     13.22162018     53.33127543 Se
atom       4.91370182     13.22058567     49.98946120 Se
atom      13.08487713      0.93945332     51.66030938 W
atom      14.71830371      1.88754580     53.33660175 Se
atom      14.72012908      1.88600779     49.98936737 Se
atom      11.44945088      3.77476940     51.66023727 W
atom      13.08696009      4.71655062     53.33645736 Se
atom      13.08759646      4.71773393     49.98921727 Se
atom       9.81882024      6.61250140     51.66008875 W
atom      11.45277084      7.55365253     53.33614782 Se
atom      11.45594454      7.55657152     49.98969501 Se
atom       8.17120451      9.43594648     51.65788394 W
atom       9.81225483     10.38449065     53.33156676 Se
atom       9.81868397     10.38759028     49.99567124 Se
atom       6.55194625     12.27619843     51.66031793 W
atom       8.18408595     13.22269635     53.33597457 Se
atom       8.18891502     13.22256109     49.99015956 Se
# 
# What follows is the current estimated Hessian matrix constructed by the BFGS algorithm.
# This is NOT the true Hessian matrix of the system.
# If you do not want this information here, switch it off using the "hessian_to_restart_geometry" keyword.
# 
trust_radius             0.0713363852
hessian_file
