&CONTROL
calculation = "scf"
pseudo_dir = "" ! insert pseudopotential directory
prefix = "unfold"
disk_io = "low"
/

&SYSTEM
ibrav = 0
nat = 75
ntyp = 2
ecutwfc = 30
noncolin = .true.
lspinorb = .true.
/

&ELECTRONS
/

ATOMIC_SPECIES
S 1. ! add S pseudo name
W 1. ! add W pseudo name

CELL_PARAMETERS angstrom
15.90000000	0.00000000	0.00000000
-7.95000000	13.76980392	0.00000000
0.00000000	0.00000000	100.00000000

ATOMIC_POSITIONS angstrom
W	0.00000000	0.91798693	2.60000000
S	1.59000000	1.83597386	4.17085904
S	1.59000000	1.83597386	1.02914096
W	-1.59000000	3.67194771	2.60000000
S	0.00000000	4.58993464	4.17085904
S	0.00000000	4.58993464	1.02914096
W	-3.18000000	6.42590850	2.60000000
S	-1.59000000	7.34389542	4.17085904
S	-1.59000000	7.34389542	1.02914096
W	-4.77000000	9.17986928	2.60000000
S	-3.18000000	10.09785621	4.17085904
S	-3.18000000	10.09785621	1.02914096
W	-6.36000000	11.93383006	2.60000000
S	-4.77000000	12.85181699	4.17085904
S	-4.77000000	12.85181699	1.02914096
W	3.18000000	0.91798693	2.60000000
S	4.77000000	1.83597386	4.17085904
S	4.77000000	1.83597386	1.02914096
W	1.59000000	3.67194771	2.60000000
S	3.18000000	4.58993464	4.17085904
S	3.18000000	4.58993464	1.02914096
W	0.00000000	6.42590850	2.60000000
S	1.59000000	7.34389542	4.17085904
S	1.59000000	7.34389542	1.02914096
W	-1.59000000	9.17986928	2.60000000
S	0.00000000	10.09785621	4.17085904
S	0.00000000	10.09785621	1.02914096
W	-3.18000000	11.93383006	2.60000000
S	-1.59000000	12.85181699	4.17085904
S	-1.59000000	12.85181699	1.02914096
W	6.36000000	0.91798693	2.60000000
S	7.95000000	1.83597386	4.17085904
S	7.95000000	1.83597386	1.02914096
W	4.77000000	3.67194771	2.60000000
S	6.36000000	4.58993464	4.17085904
S	6.36000000	4.58993464	1.02914096
W	3.18000000	6.42590850	2.60000000
S	4.77000000	7.34389542	4.17085904
S	4.77000000	7.34389542	1.02914096
W	1.59000000	9.17986928	2.60000000
S	3.18000000	10.09785621	4.17085904
S	3.18000000	10.09785621	1.02914096
W	0.00000000	11.93383006	2.60000000
S	1.59000000	12.85181699	4.17085904
S	1.59000000	12.85181699	1.02914096
W	9.54000000	0.91798693	2.60000000
S	11.13000000	1.83597386	4.17085904
S	11.13000000	1.83597386	1.02914096
W	7.95000000	3.67194771	2.60000000
S	9.54000000	4.58993464	4.17085904
S	9.54000000	4.58993464	1.02914096
W	6.36000000	6.42590850	2.60000000
S	7.95000000	7.34389542	4.17085904
S	7.95000000	7.34389542	1.02914096
W	4.77000000	9.17986928	2.60000000
S	6.36000000	10.09785621	4.17085904
S	6.36000000	10.09785621	1.02914096
W	3.18000000	11.93383006	2.60000000
S	4.77000000	12.85181699	4.17085904
S	4.77000000	12.85181699	1.02914096
W	12.72000000	0.91798693	2.60000000
S	14.31000000	1.83597386	4.17085904
S	14.31000000	1.83597386	1.02914096
W	11.13000000	3.67194771	2.60000000
S	12.72000000	4.58993464	4.17085904
S	12.72000000	4.58993464	1.02914096
W	9.54000000	6.42590850	2.60000000
S	11.13000000	7.34389542	4.17085904
S	11.13000000	7.34389542	1.02914096
W	7.95000000	9.17986928	2.60000000
S	9.54000000	10.09785621	4.17085904
S	9.54000000	10.09785621	1.02914096
W	6.36000000	11.93383006	2.60000000
S	7.95000000	12.85181699	4.17085904
S	7.95000000	12.85181699	1.02914096

K_POINTS automatic
4 4 1 0 0 0