# 
# This is the geometry file that corresponds to the current relaxation step.
# If you do not want this file to be written, set the "write_restart_geometry" flag to .false.
#  aims_uuid : 1CBA7A4C-9B66-4E09-A7FC-51AE2C53C6EE                                
# 
  set_vacuum_level        53.072500
lattice_vector     15.90000000      0.00000000      0.00000000
lattice_vector     -7.95000000     13.76980390      0.00000000
lattice_vector      0.00000000      0.00000000    100.00000000
atom       1.60400384      0.92828618      3.14386305 Mo
atom       0.00995853      1.84211749      4.70980153 S
atom       0.01266971      1.84366176      1.58393971 S
atom       0.01561178      3.67949684      3.14384724 Mo
atom      -1.60584613      4.59629786      4.69305231 S
atom      -1.58062116      4.57985184      1.56988918 S
atom      -1.60212260      6.42064567      3.11905794 Mo
atom      -3.24551813      7.31896892      4.65420983 S
atom      -3.19745100      7.32649580      1.54412180 S
atom      -3.20834851      9.16389647      3.10417054 Mo
atom      -4.82469272     10.05415715      4.65422333 S
atom      -4.79413438     10.09203951      1.54413085 S
atom      -4.78097134     11.92653357      3.11908656 Mo
atom      -6.36276701     12.83548707      4.69307324 S
atom      -6.36437308     12.86554751      1.56990352 S
atom       4.78455308      0.94290070      3.09104863 Mo
atom       3.22999486      1.87326632      4.68168299 S
atom       3.17605804      1.85470062      1.56249178 S
atom       3.23762367      3.70555772      3.10478887 Mo
atom       1.64700186      4.61515627      4.68165681 S
atom       1.60396413      4.57768881      1.56247568 S
atom       1.61855707      6.42662159      3.09100071 Mo
atom       0.02000488      7.34649439      4.66208664 S
atom      -0.00856216      7.32644569      1.54300521 S
atom      -0.00185567      9.17336288      3.08932656 Mo
atom      -1.59818084     10.09350443      4.65269369 S
atom      -1.61196667     10.08556230      1.53685056 S
atom      -1.59690651     11.93603689      3.08934948 Mo
atom      -3.16808834     12.86838852      4.66212301 S
atom      -3.19974021     12.85368409      1.54303973 S
atom       7.95212796      0.95131834      3.03257930 Mo
atom       6.42237806      1.95678372      4.57829186 S
atom       6.34367180      1.83989498      1.45718588 S
atom       6.43053112      3.73224077      2.93978422 Mo
atom       5.01146156      4.72969831      4.57040865 S
atom       4.76842267      4.58935705      1.43186990 S
atom       4.85717395      6.45737882      2.93973912 Mo
atom       3.31552147      7.33807797      4.57824685 S
atom       3.17494808      7.32835652      1.45713755 S
atom       3.20965227      9.16561655      3.03254799 Mo
atom       1.62109872     10.08290348      4.62265781 S
atom       1.57724900     10.09688953      1.50898417 S
atom       1.59278712     11.93581553      3.07625162 Mo
atom       0.00226172     12.88676162      4.62268068 S
atom      -0.00756129     12.84180435      1.50899958 S
atom      11.12557765      0.92713506      3.09319451 Mo
atom       9.48566305      1.90456467      4.60541792 S
atom       9.57075843      1.84348118      1.47296072 S
atom       9.48805518      3.68874243      2.99399104 Mo
atom       7.98523881      4.59836433      1.36841172 S
atom       7.87822214      6.38489516      2.91393487 Mo
atom       6.38458910      7.37079622      1.36837312 S
atom       6.34827599      9.12708612      2.99395932 Mo
atom       4.80194996     10.01707452      4.60539643 S
atom       4.79158672     10.12133443      1.47293611 S
atom       4.77539891     11.92600922      3.09318648 Mo
atom       3.17151745     12.84729865      4.65327840 S
atom       3.19240023     12.85935818      1.52684966 S
atom      14.31458217      0.92102213      3.13711139 Mo
atom      12.69815214      1.83788156      4.68409878 S
atom      12.73960148      1.83936664      1.55816622 S
atom      12.70380353      3.67174164      3.11703479 Mo
atom      11.01298073      4.58442141      4.62502587 S
atom      11.13551890      4.56645013      1.49720464 S
atom      11.06097899      6.39522966      3.06405849 Mo
atom       9.33714225      7.22718056      4.57514296 S
atom       9.49718261      7.31958150      1.44743724 S
atom       9.47857531      9.13604094      3.06405879 Mo
atom       7.88637685      9.99987048      4.62502216 S
atom       7.93210696     10.11498856      1.49719114 S
atom       7.94138276     11.92049648      3.11703901 Mo
atom       6.35038834     12.83254926      4.68410038 S
atom       6.37241412     12.86768645      1.55816169 S
