# 
# This is the geometry file that corresponds to the current relaxation step.
# If you do not want this file to be written, set the "write_restart_geometry" flag to .false.
#  aims_uuid : 107FE7A6-0316-47B9-A723-D22C3AF276EF                                
# 
  set_vacuum_level        52.665000
lattice_vector     16.26920104     -0.00981694     -0.02309737
lattice_vector     -8.18516487     14.12530854     -0.01310628
lattice_vector      0.00021043      0.00083580     99.60834652
atom       0.01588985      0.97217782      2.68875371 W
atom       1.69374953      2.04120378      4.28507760 Se
atom       1.59981595      1.88504065      0.91004459 Se
atom      -1.55529363      3.81594099      2.70033888 W
atom       0.29510377      4.88983495      4.26946008 Se
atom      -0.00602233      4.71052883      0.87730715 Se
atom      -3.24159895      6.59306003      2.68334411 W
atom      -1.48084629      7.51987976      4.28024714 Se
atom      -1.65884961      7.50909670      0.90526786 Se
atom      -4.91736816      9.40899708      2.67948667 W
atom      -3.25161757     10.34354821      4.33712696 Se
atom      -3.31154300     10.35086282      0.95175347 Se
atom      -6.55975259     12.24340441      2.67700098 W
atom      -4.92219996     13.22604978      4.33405055 Se
atom      -4.94134465     13.16369927      0.94911044 Se
atom       3.24829304      0.97077602      2.61232664 W
atom       4.81669844      1.98082776      4.29639587 Se
atom       4.89799043      1.88409130      0.91689838 Se
atom       1.75096086      3.86541784      2.48978171 W
atom       3.27071611      4.70435280      0.67000498 Se
atom       0.13207617      6.65840784      2.48682941 W
atom       1.61855358      7.55549745      0.66726749 Se
atom      -1.63477471      9.39736311      2.60412117 W
atom       0.02007920     10.25834635      4.28884371 Se
atom      -0.01951331     10.37016129      0.90890557 Se
atom      -3.29585144     12.24068129      2.65109818 W
atom      -1.67936389     13.17939252      4.35488426 Se
atom      -1.66634492     13.18213060      0.95891068 Se
atom       6.49613117      0.94603679      2.66786031 W
atom       8.09823525      1.88544146      4.39524956 Se
atom       8.14908464      1.87838697      1.00009671 Se
atom       4.74734894      3.81927750      2.52951156 W
atom       6.33404047      4.70008588      4.30976902 Se
atom       6.49449635      4.67519945      0.93183314 Se
atom       3.12770388      6.52787074      2.37460623 W
atom       4.56740348      7.36434271      4.24389083 Se
atom       4.83572424      7.51509491      0.83983775 Se
atom       1.58296159      9.28102281      2.52437280 W
atom       3.13419317     10.22168817      4.30467878 Se
atom       3.19686352     10.36637738      0.92636301 Se
atom      -0.04034296     12.22656663      2.65732307 W
atom       1.56939054     13.15213909      4.38479659 Se
atom       1.59269610     13.19284884      0.98960556 Se
atom       9.76050024      0.93724316      2.71885069 W
atom      11.39203538      1.88422332      4.42614727 Se
atom      11.39669614      1.88225733      1.03524985 Se
atom       8.09538121      3.75907297      2.68951144 W
atom       9.71921707      4.70984693      4.40390482 Se
atom       9.75639502      4.68786694      1.01556096 Se
atom       6.39012571      6.55690501      2.61693222 W
atom       8.01797376      7.49553186      4.35202762 Se
atom       8.09322973      7.50444067      0.97982733 Se
atom       4.77523072      9.34388893      2.61441013 W
atom       6.39722418     10.29220860      4.34923468 Se
atom       6.44666453     10.34604345      0.97699132 Se
atom       3.19590072     12.21463151      2.68141091 W
atom       4.82657008     13.15326439      4.39586608 Se
atom       4.83001854     13.18966410      1.00744567 Se
atom      13.02839710      0.94433368      2.72867618 W
atom      14.70116998      1.92808552      4.39042071 Se
atom      14.63204575      1.89586803      1.01104653 Se
atom      11.39232307      3.76814092      2.72591864 W
atom      13.07606778      4.73254319      4.38798225 Se
atom      13.01793615      4.68150059      1.00871596 Se
atom       9.72243556      6.57825740      2.69374010 W
atom      11.38858736      7.52915866      4.36580746 Se
atom      11.35336123      7.50092708      0.98021258 Se
atom       8.06711956      9.38892300      2.67165974 W
atom       9.71413702     10.34550290      4.35166119 Se
atom       9.69935351     10.33229132      0.96997768 Se
atom       6.45123903     12.22264888      2.68866512 W
atom       8.10315945     13.19886139      4.36030975 Se
atom       8.06511725     13.17524465      0.97474421 Se
# 
# What follows is the current estimated Hessian matrix constructed by the BFGS algorithm.
# This is NOT the true Hessian matrix of the system.
# If you do not want this information here, switch it off using the "hessian_to_restart_geometry" keyword.
# 
trust_radius             0.1000000015
hessian_file
