# 
# This is the geometry file that corresponds to the current relaxation step.
# If you do not want this file to be written, set the "write_restart_geometry" flag to .false.
#  aims_uuid : 2C5AC571-FB4E-4778-AEBA-9B772C6202F6                                
# 
  set_vacuum_level        52.665000
lattice_vector     16.26920104     -0.00981694     -0.02309737
lattice_vector     -8.18516487     14.12530854     -0.01310628
lattice_vector      0.00021043      0.00083580     99.60834652
atom       0.01596582      0.97101661      2.68783789 W
atom       1.69529987      2.04038429      4.28578362 Se
atom       1.60049244      1.88632713      0.91148288 Se
atom      -1.55601651      3.81550274      2.70053251 W
atom       0.29533458      4.88926618      4.26823482 Se
atom      -0.00512796      4.71191006      0.87952622 Se
atom      -3.24219454      6.59377360      2.68250409 W
atom      -1.48025040      7.52048708      4.28051563 Se
atom      -1.65818895      7.51013809      0.90616374 Se
atom      -4.91751057      9.40930749      2.67743724 W
atom      -3.25012494     10.34321256      4.33715153 Se
atom      -3.31146826     10.35139174      0.95298339 Se
atom      -6.55942914     12.24276076      2.67479922 W
atom      -4.92097738     13.22652512      4.33451324 Se
atom      -4.94165173     13.16460390      0.95039830 Se
atom       3.24739888      0.97045611      2.61291884 W
atom       4.81641579      1.98048453      4.29655165 Se
atom       4.89672230      1.88381399      0.91813371 Se
atom       1.75030648      3.86459872      2.49073973 W
atom       3.26942950      4.70432294      0.67243779 Se
atom       0.13143459      6.65834715      2.48805808 W
atom       1.61732251      7.55549355      0.66971968 Se
atom      -1.63519108      9.39665544      2.60499403 W
atom       0.02038104     10.25723393      4.28875146 Se
atom      -0.02082886     10.37031347      0.91011504 Se
atom      -3.29751010     12.23987558      2.65101674 W
atom      -1.67875232     13.17890498      4.35471117 Se
atom      -1.66745735     13.18239281      0.95912021 Se
atom       6.49651449      0.94639709      2.66792274 W
atom       8.10014411      1.88436448      4.39448489 Se
atom       8.14849295      1.87858689      1.00003271 Se
atom       4.74702235      3.81868720      2.53005739 W
atom       6.33442917      4.69930942      4.31051970 Se
atom       6.49306263      4.67647450      0.93121043 Se
atom       3.12749382      6.52783714      2.37682676 W
atom       4.56790079      7.36382483      4.24382187 Se
atom       4.83586044      7.51598166      0.83950497 Se
atom       1.58216075      9.28031089      2.52485968 W
atom       3.13427274     10.22138487      4.30538521 Se
atom       3.19621665     10.36582807      0.92581602 Se
atom      -0.04001706     12.22669279      2.65735723 W
atom       1.57016318     13.15320853      4.38396744 Se
atom       1.59196385     13.19333259      0.98940474 Se
atom       9.76018199      0.93682848      2.71807861 W
atom      11.39260998      1.88383154      4.42543090 Se
atom      11.39622869      1.88279950      1.03472698 Se
atom       8.09615943      3.76023568      2.68945501 W
atom       9.72053662      4.70908791      4.40277820 Se
atom       9.75627700      4.68860633      1.01419419 Se
atom       6.39205753      6.55624071      2.61807688 W
atom       8.01871652      7.49476051      4.35152440 Se
atom       8.09320235      7.50568380      0.97906436 Se
atom       4.77559234      9.34565006      2.61547035 W
atom       6.39777857     10.29181096      4.34895762 Se
atom       6.44706091     10.34637156      0.97643332 Se
atom       3.19711452     12.21444368      2.68157209 W
atom       4.82710519     13.15351791      4.39495637 Se
atom       4.82992929     13.19011627      1.00632328 Se
atom      13.02821148      0.94376116      2.72800240 W
atom      14.70031362      1.92762040      4.38959784 Se
atom      14.63127284      1.89692079      1.01030930 Se
atom      11.39176191      3.76784630      2.72534055 W
atom      13.07586798      4.73096326      4.38695399 Se
atom      13.01766809      4.68155784      1.00768113 Se
atom       9.72211335      6.57847029      2.69365985 W
atom      11.38866121      7.52822333      4.36478639 Se
atom      11.35258418      7.50170794      0.98024557 Se
atom       8.06753283      9.38956835      2.67112220 W
atom       9.71455478     10.34499594      4.35194798 Se
atom       9.69931845     10.33302554      0.96931589 Se
atom       6.45125744     12.22283737      2.68844050 W
atom       8.10312101     13.19806321      4.35954401 Se
atom       8.06489046     13.17525885      0.97504786 Se
# 
# What follows is the current estimated Hessian matrix constructed by the BFGS algorithm.
# This is NOT the true Hessian matrix of the system.
# If you do not want this information here, switch it off using the "hessian_to_restart_geometry" keyword.
# 
trust_radius             0.0001917705
hessian_file
