# 
# This is the geometry file that corresponds to the current relaxation step.
# If you do not want this file to be written, set the "write_restart_geometry" flag to .false.
#  aims_uuid : D29C1743-22F9-47C7-AF47-2F796BADFFF5                                
# 
  set_vacuum_level        52.600000
lattice_vector     15.83905019     -0.00078618      0.00218770
lattice_vector     -7.92011750     13.71653974      0.00218443
lattice_vector     -0.00002710     -0.00004826     99.87375975
atom      -0.00796419      0.90286008      2.59676812 W
atom       1.57867732      1.80131167      4.17304568 S
atom       1.57912946      1.80190044      1.02127791 S
atom      -1.56893402      3.66646004      2.59702662 W
atom       0.03306587      4.59097763      4.15969652 S
atom       0.03350414      4.59173734      1.03519809 S
atom      -3.18218074      6.39983840      2.59773723 W
atom      -1.61049638      7.32408105      4.17406579 S
atom      -1.61024925      7.32503834      1.02221542 S
atom      -4.75222962      9.14787196      2.59844390 W
atom      -3.17572736     10.06242245      4.18307647 S
atom      -3.17544558     10.06309134      1.01444556 S
atom      -6.33296197     11.88585555      2.59879993 W
atom      -4.75237003     12.79336617      4.18342995 S
atom      -4.75202990     12.79394904      1.01475724 S
atom       3.16784616      0.89421567      2.59722796 W
atom       4.75652947      1.80094398      4.17362947 S
atom       4.75696426      1.80180381      1.02176994 S
atom       1.62825565      3.63691226      2.59748293 W
atom       3.16758232      4.51514619      4.17603746 S
atom       3.16801553      4.51603490      1.02023122 S
atom       0.00385171      6.44977590      2.59795565 W
atom       1.53453208      7.34308361      4.17639593 S
atom       1.53490411      7.34391701      1.02057349 S
atom      -1.60186159      9.15418761      2.59869076 W
atom      -0.02184262     10.07606476      4.17497319 S
atom      -0.02147641     10.07681204      1.02315441 S
atom      -3.17149628     11.88564261      2.59909989 W
atom      -1.58845754     12.79924382      4.18296421 S
atom      -1.58802583     12.79994537      1.01599412 S
atom       6.34356071      0.90252344      2.59768904 W
atom       7.91807163      1.83332895      4.17726818 S
atom       7.91853239      1.83418244      1.01901145 S
atom       4.70727095      3.63662386      2.59824604 W
atom       6.30194691      4.59042864      4.16114633 S
atom       6.30230960      4.59157695      1.03654605 S
atom       4.80026834      7.34301327      4.17772054 S
atom       4.80008203      7.34342858      1.02192855 S
atom       1.54318831      9.11611947      2.59904729 W
atom       3.16694390     10.01957824      4.16192810 S
atom       3.16766639     10.02015512      1.03738693 S
atom      -0.00661440     11.90002654      2.59948633 W
atom       1.58714518     12.79760407      4.17902469 S
atom       1.58762330     12.79826743      1.02076729 S
atom       9.50317259      0.91381874      2.59812734 W
atom      11.08707782      1.82788059      4.17732340 S
atom      11.08748805      1.82858628      1.01979561 S
atom       7.90430543      3.66595522      2.59866945 W
atom       9.49790044      4.56936182      4.17826044 S
atom       9.49819996      4.57031950      1.01994596 S
atom       6.33109566      6.44940399      2.59961222 W
atom       7.94518905      7.32370512      4.17582447 S
atom       7.94530965      7.32452321      1.02401801 S
atom       4.79139981      9.11583598      2.59996237 W
atom       6.35598531     10.07588282      4.17623821 S
atom       6.35641087     10.07639900      1.02445762 S
atom       3.16728422     11.86981851      2.59996424 W
atom       4.74685079     12.79756242      4.17957430 S
atom       4.74745593     12.79808867      1.02128269 S
atom      12.67139286      0.91369537      2.59854583 W
atom      14.25610336      1.83318831      4.17800595 S
atom      14.25651242      1.83373102      1.01975195 S
atom      11.08717922      3.65728557      2.59897649 W
atom      12.67618091      4.56921042      4.17848210 S
atom      12.67643831      4.57013211      1.02020861 S
atom       9.51709823      6.39919998      2.59971223 W
atom      11.08683934      7.31849014      4.18360005 S
atom      11.08705366      7.31942123      1.01661526 S
atom       7.93649175      9.15376467      2.60038487 W
atom       9.51005020     10.06190133      4.18503232 S
atom       9.51034041     10.06250041      1.01638074 S
atom       6.34114166     11.89976271      2.60060442 W
atom       7.92263812     12.79895549      4.18440795 S
atom       7.92301933     12.79936552      1.01744065 S
# 
# What follows is the current estimated Hessian matrix constructed by the BFGS algorithm.
# This is NOT the true Hessian matrix of the system.
# If you do not want this information here, switch it off using the "hessian_to_restart_geometry" keyword.
# 
trust_radius             0.0001496600
hessian_file
