# 
# This is the geometry file that corresponds to the current relaxation step.
# If you do not want this file to be written, set the "write_restart_geometry" flag to .false.
#  aims_uuid : 094FF987-2C59-4D92-A44E-455B2C91B2B2                                
# 
  set_vacuum_level        52.600000
lattice_vector     15.83905019     -0.00078618      0.00218770
lattice_vector     -7.92011750     13.71653974      0.00218443
lattice_vector     -0.00002710     -0.00004826     99.87375975
atom      -0.00795017      0.90272852      2.59672636 W
atom       1.57858612      1.80119515      4.17303768 S
atom       1.57907833      1.80180290      1.02120700 S
atom      -1.56903869      3.66634170      2.59691971 W
atom       0.03289902      4.59086163      4.15961278 S
atom       0.03345279      4.59163745      1.03511972 S
atom      -3.18229743      6.39980166      2.59775505 W
atom      -1.61058410      7.32400929      4.17405091 S
atom      -1.61038323      7.32506026      1.02228367 S
atom      -4.75232731      9.14781635      2.59848218 W
atom      -3.17589800     10.06240443      4.18314554 S
atom      -3.17554676     10.06290568      1.01449215 S
atom      -6.33284351     11.88590735      2.59888414 W
atom      -4.75219151     12.79348258      4.18344623 S
atom      -4.75188159     12.79400530      1.01473670 S
atom       3.16790383      0.89423965      2.59718939 W
atom       4.75646648      1.80091662      4.17362252 S
atom       4.75705078      1.80179378      1.02165006 S
atom       1.62822551      3.63677199      2.59745803 W
atom       3.16773357      4.51479013      4.17607355 S
atom       3.16808651      4.51611229      1.02041529 S
atom       0.00380407      6.44976612      2.59791590 W
atom       1.53433596      7.34323760      4.17637228 S
atom       1.53509620      7.34398747      1.02070306 S
atom      -1.60202983      9.15416640      2.59878608 W
atom      -0.02197937     10.07609746      4.17506939 S
atom      -0.02170419     10.07688309      1.02318998 S
atom      -3.17149980     11.88561194      2.59909657 W
atom      -1.58858238     12.79923819      4.18300813 S
atom      -1.58808332     12.79982654      1.01599839 S
atom       6.34350845      0.90242461      2.59760317 W
atom       7.91807239      1.83318146      4.17721471 S
atom       7.91849107      1.83399911      1.01888458 S
atom       4.70747312      3.63654024      2.59822625 W
atom       6.30228935      4.59037639      4.16105637 S
atom       6.30253426      4.59160524      1.03647940 S
atom       4.80031253      7.34313741      4.17772378 S
atom       4.80009866      7.34349245      1.02203719 S
atom       1.54307532      9.11633717      2.59897007 W
atom       3.16684766     10.01985615      4.16177407 S
atom       3.16762880     10.02045171      1.03722419 S
atom      -0.00666929     11.90007098      2.59952967 W
atom       1.58712417     12.79768309      4.17898746 S
atom       1.58756215     12.79840940      1.02075451 S
atom       9.50316936      0.91380896      2.59812259 W
atom      11.08709790      1.82793893      4.17739086 S
atom      11.08738484      1.82858409      1.01970908 S
atom       7.90447423      3.66580921      2.59852652 W
atom       9.49791004      4.56927689      4.17822104 S
atom       9.49831132      4.57036936      1.01988145 S
atom       6.33120084      6.44945866      2.59965857 W
atom       7.94533235      7.32377261      4.17595297 S
atom       7.94540263      7.32456336      1.02401567 S
atom       4.79137032      9.11604967      2.59990733 W
atom       6.35602949     10.07592251      4.17630401 S
atom       6.35650255     10.07656933      1.02453591 S
atom       3.16726946     11.87004087      2.59988184 W
atom       4.74686508     12.79763013      4.17962448 S
atom       4.74760297     12.79818610      1.02134861 S
atom      12.67132638      0.91370250      2.59855747 W
atom      14.25609696      1.83307140      4.17794962 S
atom      14.25645044      1.83355893      1.01971916 S
atom      11.08715788      3.65722934      2.59895289 W
atom      12.67609697      4.56909618      4.17845480 S
atom      12.67631342      4.57010333      1.02013027 S
atom       9.51710748      6.39917746      2.59975631 W
atom      11.08678781      7.31845225      4.18367916 S
atom      11.08699489      7.31940717      1.01667766 S
atom       7.93655334      9.15380583      2.60045655 W
atom       9.51006383     10.06197203      4.18510636 S
atom       9.51033561     10.06259072      1.01640929 S
atom       6.34126378     11.89982038      2.60072819 W
atom       7.92280069     12.79892436      4.18450000 S
atom       7.92318989     12.79923671      1.01749512 S
# 
# What follows is the current estimated Hessian matrix constructed by the BFGS algorithm.
# This is NOT the true Hessian matrix of the system.
# If you do not want this information here, switch it off using the "hessian_to_restart_geometry" keyword.
# 
trust_radius             0.0003009350
hessian_file
