#
# temporary structure-file for finite-difference calculation of forces
# displacement   0.0020 of \# atom     1 direction     0
#
lattice_vector   15.90000000    0.00000000    0.00000000
lattice_vector   -7.95000000   13.76980390    0.00000000
lattice_vector    0.00000000    0.00000000  100.00000000
atom    1.58941369    0.91767938    3.07867271  Mo
atom    0.00063770    1.83627711    4.63706717   S
atom    0.00040334    1.83225976    1.51548115   S
atom    0.00168416    3.66868254    3.07295849  Mo
atom   -1.59020021    4.59020449    4.63278613   S
atom   -1.58990599    4.59036766    1.51422630   S
atom   -1.59232806    6.42961223    3.07294810  Mo
atom   -3.18075672    7.34314569    4.63704626   S
atom   -3.18333618    7.34668934    1.51546765   S
atom   -3.18091201    9.18014244    3.07866293  Mo
atom   -4.76999180   10.09779231    4.64056893   S
atom   -4.76999602   10.09957660    1.51916377   S
atom   -4.77001516   11.93423344    3.08062256  Mo
atom   -6.36038816   12.85243763    4.64057515   S
atom   -6.35885752   12.85154395    1.51917562   S
atom    4.77055334    0.91767771    3.07866317  Mo
atom    3.18000813    1.84091014    4.63664188   S
atom    3.18000128    1.83381651    1.51829059   S
atom    3.17998432    3.67518703    3.07261463  Mo
atom    1.58604075    4.59315075    4.63211790   S
atom    1.58736318    4.57483184    1.50194760   S
atom    1.56165052    6.40995752    3.05775095  Mo
atom    0.00047174    7.33942783    4.63211379   S
atom   -0.01472480    7.34975399    1.50193803   S
atom    0.00245939    9.17884205    3.07262283  Mo
atom   -1.58605503   10.09597225    4.63664080   S
atom   -1.59218086   10.09951517    1.51829200   S
atom   -1.59034216   11.93507481    3.07866824  Mo
atom   -3.17959585   12.85243864    4.64056687   S
atom   -3.18113829   12.85154283    1.51916648   S
atom    7.95036708    0.91860748    3.07588775  Mo
atom    6.36137657    1.83627644    4.63704987   S
atom    6.35960414    1.83225957    1.51546513   S
atom    6.35828847    3.66868606    3.07294109  Mo
atom    4.77397677    4.59313764    4.63210178   S
atom    4.77264341    4.57483074    1.50193782   S
atom    4.79832420    6.40995003    3.05774286  Mo
atom    3.18000749    7.34423531    4.58015761   S
atom    3.17999401    7.34413404    6.51983415   S
atom    3.18000554    7.34427779    1.52947855   S
atom    3.17998168    9.21295552    3.05777737  Mo
atom    1.59443844   10.10025188    4.63213043   S
atom    1.57792109   10.10826364    1.50195945   S
atom    1.58597203   11.93458066    3.07297159  Mo
atom    0.00061177   12.85344218    4.63706001   S
atom   -0.00373280   12.85389766    1.51547988   S
atom   11.12998754    0.91875675    3.07370710  Mo
atom    9.54102765    1.83695835    4.63489688   S
atom    9.53959526    1.83611305    1.51394920   S
atom    9.54031075    3.67216210    3.07368808  Mo
atom    7.95021478    4.59020372    4.63277755   S
atom    7.94992424    4.59037519    1.51421241   S
atom    7.95230131    6.42961302    3.07294495  Mo
atom    6.35954450    7.33943305    4.63210990   S
atom    6.37474101    7.34975852    1.50194117   S
atom    6.35751186    9.17884640    3.07263263  Mo
atom    4.76556982   10.10024261    4.63214516   S
atom    4.78209149   10.10827018    1.50196992   S
atom    4.77400697   11.93458244    3.07298594  Mo
atom    3.18000680   12.85244779    4.63281151   S
atom    3.18001588   12.85209864    1.51424550   S
atom   14.30960659    0.91860111    3.07590489  Mo
atom   12.71898447    1.83695758    4.63490574   S
atom   12.72043076    1.83611175    1.51395943   S
atom   12.71966082    3.67216076    3.07369629  Mo
atom   11.13000469    4.58915041    4.63488907   S
atom   11.13001116    4.59081121    1.51394376   S
atom   11.12998459    6.42587712    3.07588072  Mo
atom    9.54076746    7.34314586    4.63704736   S
atom    9.54334896    7.34669523    1.51546821   S
atom    9.54088306    9.18014295    3.07866792  Mo
atom    7.94606805   10.09597010    4.63665221   S
atom    7.95219376   10.09952068    1.51830315   S
atom    7.95030678   11.93507824    3.07868245  Mo
atom    6.35940003   12.85343799    4.63708280   S
atom    6.36374736   12.85389853    1.51549199   S
