# 
# This is the geometry file that corresponds to the current relaxation step.
# If you do not want this file to be written, set the "write_restart_geometry" flag to .false.
#  aims_uuid : 5592D043-E88E-4ED6-A610-F311E7602E05                                
# 
  set_vacuum_level        52.613254
lattice_vector     16.41708800      0.00000000      0.00000000
lattice_vector     -8.21125790     14.21583190      0.00000000
lattice_vector      0.00000000      0.00000000     99.89650741
atom       0.04106247      1.01842098      2.66500000 Mo
atom       1.68564404      1.97119478      4.33759200 Se
atom       1.68564404      1.97119478      0.99240800 Se
atom      -1.58247367      3.87859735      2.66500000 Mo
atom       0.06418950      4.82927188      4.34644253 Se
atom       0.06418950      4.82927188      0.98355747 Se
atom      -3.24879882      6.71390954      2.66500000 Mo
atom      -1.60149114      7.66171533      4.33764500 Se
atom      -1.60149114      7.66171533      0.99235500 Se
atom      -4.87668530      9.55892876      2.66500000 Mo
atom      -3.23623373     10.50757204      4.34400968 Se
atom      -3.23623373     10.50757204      0.98599032 Se
atom      -6.51914783     12.40252345      2.66500000 Mo
atom      -4.87727922     13.34883857      4.34398839 Se
atom      -4.87727922     13.34883857      0.98601161 Se
atom       3.33363096      1.02537820      2.66500000 Mo
atom       4.98139561      1.97105326      4.33762893 Se
atom       4.98139561      1.97105326      0.99237107 Se
atom       1.70951556      3.88027690      2.66500000 Mo
atom       3.33316105      4.81763194      4.33751159 Se
atom       3.33316105      4.81763194      0.99248841 Se
atom       0.06406005      6.72842122      2.66500000 Mo
atom       1.68784815      7.66533205      4.33745111 Se
atom       1.68784815      7.66533205      0.99254889 Se
atom      -1.59714806      9.56147038      2.66500000 Mo
atom       0.04578139     10.51541645      4.33766255 Se
atom       0.04578139     10.51541645      0.99233745 Se
atom      -3.23523916     12.40254743      2.66500000 Mo
atom      -1.59707582     13.34824134      4.35008759 Se
atom      -1.59707582     13.34824134      0.97991241 Se
atom       6.62610594      1.01839996      2.66500000 Mo
atom       8.25958852      1.97935467      4.34394290 Se
atom       8.25958852      1.97935467      0.98605710 Se
atom       4.95677411      3.88001622      2.66500000 Mo
atom       6.60166604      4.82901219      4.34648860 Se
atom       6.60166604      4.82901219      0.98351140 Se
atom       4.97676350      7.66497164      4.33751252 Se
atom       4.97676350      7.66497164      0.99248748 Se
atom       1.68705304      9.54004456      2.66500000 Mo
atom       3.33162971     10.48976029      4.34647864 Se
atom       3.33162971     10.48976029      0.98352136 Se
atom       0.04253810     12.41590568      2.66500000 Mo
atom       1.69169422     13.34987602      4.34390403 Se
atom       1.69169422     13.34987602      0.98609597 Se
atom       9.90402946      1.03186024      2.66500000 Mo
atom      11.54196772      1.97739996      4.34690848 Se
atom      11.54196772      1.97739996      0.98309152 Se
atom       8.24844025      3.87847379      2.66500000 Mo
atom       9.89854413      4.81868267      4.34393222 Se
atom       9.89854413      4.81868267      0.98606778 Se
atom       6.60073874      6.72804958      2.66500000 Mo
atom       8.26612088      7.66148339      4.33764965 Se
atom       8.26612088      7.66148339      0.99235035 Se
atom       4.97629749      9.53976961      2.66500000 Mo
atom       6.61756076     10.51521648      4.33759405 Se
atom       6.61756076     10.51521648      0.99240595 Se
atom       3.33125697     12.39111578      2.66500000 Mo
atom       4.97068507     13.34986792      4.34390687 Se
atom       4.97068507     13.34986792      0.98609313 Se
atom      13.18001975      1.03186328      2.66500000 Mo
atom      14.82440335      1.97943646      4.34390977 Se
atom      14.82440335      1.97943646      0.98609023 Se
atom      11.54150409      3.86862895      2.66500000 Mo
atom      13.18433746      4.81879985      4.34391597 Se
atom      13.18433746      4.81879985      0.98608403 Se
atom       9.91363526      6.71376499      2.66500000 Mo
atom      11.54085940      7.66743057      4.35007696 Se
atom      11.54085940      7.66743057      0.97992304 Se
atom       8.26081232      9.56126295      2.66500000 Mo
atom       9.89969844     10.50749548      4.34398556 Se
atom       9.89969844     10.50749548      0.98601444 Se
atom       6.62000621     12.41585542      2.66500000 Mo
atom       8.25954699     13.34821309      4.35010044 Se
atom       8.25954699     13.34821309      0.97989956 Se
# 
# What follows is the current estimated Hessian matrix constructed by the BFGS algorithm.
# This is NOT the true Hessian matrix of the system.
# If you do not want this information here, switch it off using the "hessian_to_restart_geometry" keyword.
# 
trust_radius             0.0003714505
hessian_file
