# 
# This is the geometry file that corresponds to the current relaxation step.
# If you do not want this file to be written, set the "write_restart_geometry" flag to .false.
#  aims_uuid : 4A6A0534-1288-4B27-ABE5-A76575C9262F                                
# 
  set_vacuum_level        52.633048
lattice_vector     16.23865900      0.00000000      0.00000000
lattice_vector     -8.11989635     14.06215255      0.00000000
lattice_vector      0.00000000      0.00000000     99.93951163
atom_frac       0.03292968      0.06637677      0.02694040 Mo
atom_frac       0.16442690      0.13081583      0.04384798 Se
atom_frac       0.16938999      0.13618552      0.01089192 Se
atom_frac       0.03465559      0.26724325      0.02687181 Mo
atom_frac       0.16848305      0.33643776      0.04353521 Se
atom_frac       0.17047429      0.33312534      0.01049217 Se
atom_frac       0.03248484      0.46643437      0.02659740 Mo
atom_frac       0.16679978      0.53480232      0.04294261 Se
atom_frac       0.16432721      0.53363707      0.00977201 Se
atom_frac       0.03319118      0.66691442      0.02660969 Mo
atom_frac       0.16658299      0.73273513      0.04313885 Se
atom_frac       0.16573365      0.73475633      0.00995370 Se
atom_frac       0.03349527      0.86680115      0.02675963 Mo
atom_frac       0.16579845      0.93143640      0.04350774 Se
atom_frac       0.16745409      0.93514102      0.01035234 Se
atom_frac       0.23314794      0.06627447      0.02729758 Mo
atom_frac       0.36622979      0.13058353      0.04389898 Se
atom_frac       0.36692531      0.13535590      0.01086952 Se
atom_frac       0.23585476      0.26701157      0.02785449 Mo
atom_frac       0.36009890      0.31980387      0.04596369 Se
atom_frac       0.37645978      0.35057888      0.01328239 Se
atom_frac       0.23312261      0.46918331      0.02627580 Mo
atom_frac       0.37185821      0.52725194      0.04064802 Se
atom_frac       0.35876922      0.53907583      0.00809948 Se
atom_frac       0.23268290      0.66748594      0.02625523 Mo
atom_frac       0.36708959      0.73146792      0.04256613 Se
atom_frac       0.36436102      0.73680706      0.00942476 Se
atom_frac       0.23316685      0.86670272      0.02673971 Mo
atom_frac       0.36664566      0.93180599      0.04332056 Se
atom_frac       0.36630086      0.93532801      0.01012581 Se
atom_frac       0.43367272      0.06644790      0.02699763 Mo
atom_frac       0.56740193      0.13252536      0.04343893 Se
atom_frac       0.56635634      0.13410379      0.01033508 Se
atom_frac       0.43271603      0.26620910      0.02778373 Mo
atom_frac       0.56773384      0.33395635      0.04388787 Se
atom_frac       0.56406308      0.33332952      0.01070794 Se
atom_frac       0.55850168      0.52606314      0.04166926 Se
atom_frac       0.56969877      0.53513181      0.00951956 Se
atom_frac       0.43049107      0.66623295      0.02517868 Mo
atom_frac       0.56345029      0.72785772      0.04201094 Se
atom_frac       0.56674539      0.73343174      0.00903934 Se
atom_frac       0.43302289      0.86729311      0.02641519 Mo
atom_frac       0.56654190      0.93098457      0.04291145 Se
atom_frac       0.56648733      0.93419869      0.00984608 Se
atom_frac       0.63358979      0.06633496      0.02665276 Mo
atom_frac       0.76663885      0.13273549      0.04324459 Se
atom_frac       0.76696339      0.13336184      0.01011302 Se
atom_frac       0.63334439      0.26688471      0.02698951 Mo
atom_frac       0.76772372      0.33371362      0.04331254 Se
atom_frac       0.76568910      0.33241506      0.01019788 Se
atom_frac       0.63529619      0.46763242      0.02701678 Mo
atom_frac       0.76944934      0.53470659      0.04321900 Se
atom_frac       0.76618720      0.53284553      0.01001800 Se
atom_frac       0.63451266      0.66507880      0.02539903 Mo
atom_frac       0.76355469      0.73103566      0.04276257 Se
atom_frac       0.77110111      0.73574390      0.00964020 Se
atom_frac       0.63298173      0.86547942      0.02607952 Mo
atom_frac       0.76462288      0.93138656      0.04296633 Se
atom_frac       0.76812348      0.93413640      0.00988267 Se
atom_frac       0.83342784      0.06644042      0.02666442 Mo
atom_frac       0.96623022      0.13329435      0.04339258 Se
atom_frac       0.96798019      0.13405400      0.01028681 Se
atom_frac       0.83341699      0.26631008      0.02670708 Mo
atom_frac       0.96692523      0.33372557      0.04327228 Se
atom_frac       0.96721944      0.33265795      0.01017860 Se
atom_frac       0.83361824      0.46640501      0.02661766 Mo
atom_frac       0.96695849      0.53368711      0.04319706 Se
atom_frac       0.96635224      0.53346701      0.01002676 Se
atom_frac       0.83407197      0.66696071      0.02645723 Mo
atom_frac       0.96626501      0.73293271      0.04318441 Se
atom_frac       0.96776125      0.73425614      0.01003835 Se
atom_frac       0.83373068      0.86682041      0.02652271 Mo
atom_frac       0.96533707      0.93204522      0.04333650 Se
atom_frac       0.96843631      0.93479366      0.01014589 Se
# 
# What follows is the current estimated Hessian matrix constructed by the BFGS algorithm.
# This is NOT the true Hessian matrix of the system.
# If you do not want this information here, switch it off using the "hessian_to_restart_geometry" keyword.
# 
trust_radius             0.2090228108
hessian_file
