# 
# This is the geometry file that corresponds to the current relaxation step.
# If you do not want this file to be written, set the "write_restart_geometry" flag to .false.
#  aims_uuid : 54589440-54D2-40F0-A529-CF15F98DD504                                
# 
  set_vacuum_level        52.505409
lattice_vector     15.67253790      0.00000000      0.00000000
lattice_vector     -7.83631930     13.57134925      0.00000000
lattice_vector      0.00000000      0.00000000     99.83654525
atom_frac       0.03388855      0.06773668      0.02591857 W
atom_frac       0.16763297      0.13526642      0.04149890 S
atom_frac       0.16763591      0.13526920      0.01033902 S
atom_frac       0.03572856      0.26917660      0.02591878 W
atom_frac       0.17298912      0.34075972      0.04149151 S
atom_frac       0.17299006      0.34075788      0.01034639 S
atom_frac       0.03573300      0.46651916      0.02591845 W
atom_frac       0.17299350      0.53218643      0.04149065 S
atom_frac       0.17299376      0.53218421      0.01034646 S
atom_frac       0.03389327      0.66612251      0.02591805 W
atom_frac       0.16763973      0.73232524      0.04149797 S
atom_frac       0.16764145      0.73232671      0.01033855 S
atom_frac       0.03332304      0.86664602      0.02591813 W
atom_frac       0.16712233      0.93353933      0.04149015 S
atom_frac       0.16712620      0.93354429      0.01034689 S
atom_frac       0.23384810      0.06773646      0.02591896 W
atom_frac       0.36708984      0.13492287      0.04151585 S
atom_frac       0.36708970      0.13492421      0.01032220 S
atom_frac       0.23514332      0.27028716      0.02591919 W
atom_frac       0.36777139      0.34076055      0.04149140 S
atom_frac       0.36776927      0.34075741      0.01034662 S
atom_frac       0.24640373      0.47317807      0.02591870 W
atom_frac       0.23515305      0.66481716      0.02591835 W
atom_frac       0.36777734      0.72696653      0.04149056 S
atom_frac       0.36777627      0.72696663      0.01034584 S
atom_frac       0.23385057      0.86607714      0.02591848 W
atom_frac       0.36709247      0.93212297      0.04151522 S
atom_frac       0.36709322      0.93212674      0.01032185 S
atom_frac       0.43312720      0.06654556      0.02591876 W
atom_frac       0.56647533      0.13321917      0.04152816 S
atom_frac       0.56647349      0.13321993      0.01030924 S
atom_frac       0.43344900      0.26917648      0.02591902 W
atom_frac       0.56613248      0.33383516      0.04153395 S
atom_frac       0.56612884      0.33383139      0.01030358 S
atom_frac       0.42677539      0.47317952      0.02591869 W
atom_frac       0.55919503      0.53218786      0.04149038 S
atom_frac       0.55919032      0.53218269      0.01034613 S
atom_frac       0.42677488      0.65354985      0.02591813 W
atom_frac       0.55919127      0.72696716      0.04149023 S
atom_frac       0.55918895      0.72696605      0.01034545 S
atom_frac       0.43345229      0.86423275      0.02591825 W
atom_frac       0.56613160      0.93226056      0.04153341 S
atom_frac       0.56613086      0.93226367      0.01030292 S
atom_frac       0.63308658      0.06617253      0.02591834 W
atom_frac       0.76674585      0.13321860      0.04152785 S
atom_frac       0.76674618      0.13322039      0.01030893 S
atom_frac       0.63308677      0.26688430      0.02591867 W
atom_frac       0.76674817      0.33349499      0.04152788 S
atom_frac       0.76674633      0.33349257      0.01030912 S
atom_frac       0.63078719      0.46651936      0.02591829 W
atom_frac       0.76503849      0.53287783      0.04151493 S
atom_frac       0.76503641      0.53287410      0.01032126 S
atom_frac       0.62966421      0.66481710      0.02591782 W
atom_frac       0.76468588      0.73232640      0.04149738 S
atom_frac       0.76468592      0.73232647      0.01033798 S
atom_frac       0.63078061      0.86423317      0.02591785 W
atom_frac       0.76503127      0.93212287      0.04151463 S
atom_frac       0.76503312      0.93212678      0.01032118 S
atom_frac       0.83341850      0.06654524      0.02591827 W
atom_frac       0.96783230      0.13492191      0.04151543 S
atom_frac       0.96783629      0.13492510      0.01032175 S
atom_frac       0.83379755      0.26688404      0.02591858 W
atom_frac       0.96770269      0.33383307      0.04153380 S
atom_frac       0.96770407      0.33383238      0.01030354 S
atom_frac       0.83342406      0.46684744      0.02591824 W
atom_frac       0.96783885      0.53287689      0.04151512 S
atom_frac       0.96783983      0.53287517      0.01032147 S
atom_frac       0.83222862      0.66612246      0.02591776 W
atom_frac       0.96641932      0.73284089      0.04148952 S
atom_frac       0.96642245      0.73284277      0.01034638 S
atom_frac       0.83222664      0.86607761      0.02591780 W
atom_frac       0.96641547      0.93353923      0.04148975 S
atom_frac       0.96642057      0.93354448      0.01034656 S
# 
# What follows is the current estimated Hessian matrix constructed by the BFGS algorithm.
# This is NOT the true Hessian matrix of the system.
# If you do not want this information here, switch it off using the "hessian_to_restart_geometry" keyword.
# 
