lattice_vector     19.080      0.00000000      0.00000000
lattice_vector     -7.95000000     16.52376468      0.00000000
lattice_vector      0.00000000      0.00000000    100.00000000
       atom_frac         0.13334674        0.06669554        0.03072499  Mo
       atom_frac         0.06668111        0.13336125        0.04632733  S
       atom_frac         0.06668111        0.13336125        0.01512263  S
       atom_frac         0.13334674        0.26669554        0.03072499  Mo
       atom_frac         0.06668111        0.33336125        0.04632733  S
       atom_frac         0.06668111        0.33336125        0.01512263  S
       atom_frac         0.13334674        0.46669554        0.03072499  Mo
       atom_frac         0.06668111        0.53336125        0.04632733  S
       atom_frac         0.06668111        0.53336125        0.01512263  S
       atom_frac         0.13334674        0.66669554        0.03072499  Mo
       atom_frac         0.06668111        0.73336125        0.04632733  S
       atom_frac         0.06668111        0.73336125        0.01512263  S
       atom_frac         0.13334674        0.86669554        0.03072499  Mo
       atom_frac         0.06668111        0.93336125        0.04632733  S
       atom_frac         0.06668111        0.93336125        0.01512263  S
       atom_frac         0.33334674        0.06669554        0.03072499  Mo
       atom_frac         0.26668111        0.13336125        0.04632733  S
       atom_frac         0.26668111        0.13336125        0.01512263  S
       atom_frac         0.33334674        0.26669554        0.03072499  Mo
       atom_frac         0.26668111        0.33336125        0.04632733  S
       atom_frac         0.26668111        0.33336125        0.01512263  S
       atom_frac         0.33334674        0.46669554        0.03072499  Mo
       atom_frac         0.26668111        0.53336125        0.04632733  S
       atom_frac         0.26668111        0.53336125        0.01512263  S
       atom_frac         0.33334674        0.66669554        0.03072499  Mo
       atom_frac         0.26668111        0.73336125        0.04632733  S
       atom_frac         0.26668111        0.73336125        0.01512263  S
       atom_frac         0.33334674        0.86669554        0.03072499  Mo
       atom_frac         0.26668111        0.93336125        0.04632733  S
       atom_frac         0.26668111        0.93336125        0.01512263  S
       atom_frac         0.53334674        0.06669554        0.03072499  Mo
       atom_frac         0.46668111        0.13336125        0.04632733  S
       atom_frac         0.46668111        0.13336125        0.01512263  S
       atom_frac         0.53334674        0.26669554        0.03072499  Mo
       atom_frac         0.46668111        0.33336125        0.04632733  S
       atom_frac         0.46668111        0.33336125        0.01512263  S
       atom_frac         0.53334674        0.46669554        0.03072499  Mo
       atom_frac         0.46668111        0.53336125        0.04632733  S
       atom_frac         0.46668111        0.53336125        0.01512263  S
       atom_frac         0.53334674        0.66669554        0.03072499  Mo
       atom_frac         0.46668111        0.73336125        0.04632733  S
       atom_frac         0.46668111        0.73336125        0.01512263  S
       atom_frac         0.53334674        0.86669554        0.03072499  Mo
       atom_frac         0.46668111        0.93336125        0.04632733  S
       atom_frac         0.46668111        0.93336125        0.01512263  S
       atom_frac         0.73334674        0.06669554        0.03072499  Mo
       atom_frac         0.66668111        0.13336125        0.04632733  S
       atom_frac         0.66668111        0.13336125        0.01512263  S
       atom_frac         0.73334674        0.26669554        0.03072499  Mo
       atom_frac         0.66668111        0.33336125        0.04632733  S
       atom_frac         0.66668111        0.33336125        0.01512263  S
       atom_frac         0.73334674        0.46669554        0.03072499  Mo
       atom_frac         0.66668111        0.53336125        0.04632733  S
       atom_frac         0.66668111        0.53336125        0.01512263  S
       atom_frac         0.73334674        0.66669554        0.03072499  Mo
       atom_frac         0.66668111        0.73336125        0.04632733  S
       atom_frac         0.66668111        0.73336125        0.01512263  S
       atom_frac         0.73334674        0.86669554        0.03072499  Mo
       atom_frac         0.66668111        0.93336125        0.04632733  S
       atom_frac         0.66668111        0.93336125        0.01512263  S
       atom_frac         0.93334674        0.06669554        0.03072499  Mo
       atom_frac         0.86668111        0.13336125        0.04632733  S
       atom_frac         0.86668111        0.13336125        0.01512263  S
       atom_frac         0.93334674        0.26669554        0.03072499  Mo
       atom_frac         0.86668111        0.33336125        0.04632733  S
       atom_frac         0.86668111        0.33336125        0.01512263  S
       atom_frac         0.93334674        0.46669554        0.03072499  Mo
       atom_frac         0.86668111        0.53336125        0.04632733  S
       atom_frac         0.86668111        0.53336125        0.01512263  S
       atom_frac         0.93334674        0.66669554        0.03072499  Mo
       atom_frac         0.86668111        0.73336125        0.04632733  S
       atom_frac         0.86668111        0.73336125        0.01512263  S
       atom_frac         0.93334674        0.86669554        0.03072499  Mo
       atom_frac         0.86668111        0.93336125        0.04632733  S
       atom_frac         0.86668111        0.93336125        0.01512263  S
