#
lattice_vector  19.08000000 0.00000000 0.00000000
lattice_vector  -7.95000000 16.52376468 0.00000000
lattice_vector  0.00000000 0.00000000 100.00000000
#
atom 2.01402626 1.10206141 3.07249900 Mo
atom 0.21205364 2.20362991 4.63273300 S
atom 0.21205364 2.20362991 1.51226300 S
atom 0.42402626 4.40681434 3.07249900 Mo
atom -1.37794636 5.50838285 4.63273300 S
atom -1.37794636 5.50838285 1.51226300 S
atom -1.16597374 7.71156728 3.07249900 Mo
atom -2.96794636 8.81313578 4.63273300 S
atom -2.96794636 8.81313578 1.51226300 S
atom -2.75597374 11.01632022 3.07249900 Mo
atom -4.55794636 12.11788872 4.63273300 S
atom -4.55794636 12.11788872 1.51226300 S
atom -4.34597374 14.32107315 3.07249900 Mo
atom -6.14794636 15.42264166 4.63273300 S
atom -6.14794636 15.42264166 1.51226300 S
atom 5.83002626 1.10206141 3.07249900 Mo
atom 4.02805364 2.20362991 4.63273300 S
atom 4.02805364 2.20362991 1.51226300 S
atom 4.24002626 4.40681434 3.07249900 Mo
atom 2.43805364 5.50838285 4.63273300 S
atom 2.43805364 5.50838285 1.51226300 S
atom 2.65002626 7.71156728 3.07249900 Mo
atom 0.84805364 8.81313578 4.63273300 S
atom 0.84805364 8.81313578 1.51226300 S
atom 1.06002626 11.01632022 3.07249900 Mo
atom -0.74194636 12.11788872 4.63273300 S
atom -0.74194636 12.11788872 1.51226300 S
atom -0.52997374 14.32107315 3.07249900 Mo
atom -2.33194636 15.42264166 4.63273300 S
atom -2.33194636 15.42264166 1.51226300 S
atom 9.64602626 1.10206141 3.07249900 Mo
atom 7.84405364 2.20362991 4.63273300 S
atom 7.84405364 2.20362991 1.51226300 S
atom 8.05602626 4.40681434 3.07249900 Mo
atom 6.25405364 5.50838285 4.63273300 S
atom 6.25405364 5.50838285 1.51226300 S
atom 6.46602626 7.71156728 3.07249900 Mo
atom 4.66405364 8.81313578 4.63273300 S
atom 4.66405364 8.81313578 1.51226300 S
atom 4.87602626 11.01632022 3.07249900 Mo
atom 3.07405364 12.11788872 4.63273300 S
atom 3.07405364 12.11788872 1.51226300 S
atom 3.28602626 14.32107315 3.07249900 Mo
atom 1.48405364 15.42264166 4.63273300 S
atom 1.48405364 15.42264166 1.51226300 S
atom 13.46202626 1.10206141 3.07249900 Mo
atom 11.66005364 2.20362991 4.63273300 S
atom 11.66005364 2.20362991 1.51226300 S
atom 11.87202626 4.40681434 3.07249900 Mo
atom 10.07005364 5.50838285 4.63273300 S
atom 10.07005364 5.50838285 1.51226300 S
atom 10.28202626 7.71156728 3.07249900 Mo
atom 8.48005364 8.81313578 4.63273300 S
atom 8.48005364 8.81313578 1.51226300 S
atom 8.69202626 11.01632022 3.07249900 Mo
atom 6.89005364 12.11788872 4.63273300 S
atom 6.89005364 12.11788872 1.51226300 S
atom 7.10202626 14.32107315 3.07249900 Mo
atom 5.30005364 15.42264166 4.63273300 S
atom 5.30005364 15.42264166 1.51226300 S
atom 17.27802626 1.10206141 3.07249900 Mo
atom 15.47605364 2.20362991 4.63273300 S
atom 15.47605364 2.20362991 1.51226300 S
atom 15.68802626 4.40681434 3.07249900 Mo
atom 13.88605364 5.50838285 4.63273300 S
atom 13.88605364 5.50838285 1.51226300 S
atom 14.09802626 7.71156728 3.07249900 Mo
atom 12.29605364 8.81313578 4.63273300 S
atom 12.29605364 8.81313578 1.51226300 S
atom 12.50802626 11.01632022 3.07249900 Mo
atom 10.70605364 12.11788872 4.63273300 S
atom 10.70605364 12.11788872 1.51226300 S
atom 10.91802626 14.32107315 3.07249900 Mo
atom 9.11605364 15.42264166 4.63273300 S
atom 9.11605364 15.42264166 1.51226300 S
