# 
# This is the geometry file that corresponds to the current relaxation step.
# If you do not want this file to be written, set the "write_restart_geometry" flag to .false.
#  aims_uuid : B0446138-1247-4EC2-A08E-C5EA62752EBD                                
# 
lattice_vector     15.90000000      0.00000000      0.00000000
lattice_vector     -7.95000000     13.76980390      0.00000000
lattice_vector      0.00000000      0.00000000    100.00000000
atom      -0.01287240      0.90343380      2.61020404 Mo
atom       1.59012305      1.80397591      4.13434811 S
atom       1.57338536      1.76719662      1.06960253 S
atom      -1.58039304      3.68059713      2.60256864 Mo
atom       0.04255378      4.60201689      4.11644150 S
atom       0.02919930      4.62531621      1.08880277 S
atom      -3.20163135      6.42663700      2.59486625 Mo
atom      -1.66048722      7.36849338      4.13551941 S
atom      -1.62008660      7.36452254      1.07080863 S
atom      -4.77301743      9.18753225      2.60248937 Mo
atom      -3.19870031     10.10903650      4.14240593 S
atom      -3.19940988     10.10779532      1.06260220 S
atom      -6.35750249     11.93194321      2.60250434 Mo
atom      -4.77374031     12.83452794      4.14244979 S
atom      -4.77228464     12.83459414      1.06261821 S
atom       3.17697971      0.87805768      2.60257704 Mo
atom       4.78060977      1.76713607      4.13555860 S
atom       4.76379805      1.80406506      1.07083242 S
atom       1.62803458      3.60903469      2.56366666 Mo
atom       3.22816933      4.47101007      4.13760138 S
atom       3.12579243      4.47123476      1.06783392 S
atom      -0.03797768      6.49487306      2.64160988 Mo
atom       1.45752438      7.36087149      4.13737530 S
atom       1.50879621      7.44952432      1.06775915 S
atom      -1.62867540      9.20178444      2.60250696 Mo
atom      -0.03330914     10.11302703      4.13422470 S
atom      -0.05691221     10.14598538      1.06947611 S
atom      -3.18853192     11.93194377      2.60251734 Mo
atom      -1.59756485     12.85398904      4.13831033 S
atom      -1.59453567     12.84872389      1.06671199 S
atom       6.36681204      0.90343481      2.59488097 Mo
atom       7.94451206      1.84328982      4.13015203 S
atom       7.95007621      1.84497708      1.06792093 S
atom       4.72589340      3.60906008      2.64159334 Mo
atom       6.32476806      4.62537925      4.11631296 S
atom       6.31129874      4.60198119      1.08868366 S
atom       4.84510604      7.44950862      4.13707470 S
atom       4.89658692      7.36094022      1.06737666 S
atom       1.51090866      9.17775052      2.56344686 Mo
atom       3.16356632     10.05433190      4.11622081 S
atom       3.19036605     10.05438111      1.08855819 S
atom      -0.01182740     11.95158369      2.61013391 Mo
atom       1.59517591     12.85203564      4.13706465 S
atom       1.59088037     12.84808139      1.07483025 S
atom       9.53762307      0.91973675      2.60249754 Mo
atom      11.12694505      1.83732764      4.13338484 S
atom      11.12695148      1.83734670      1.07162179 S
atom       7.93427851      3.68059902      2.60251020 Mo
atom       9.53186870      4.58473901      4.13709409 S
atom       9.53054233      4.59039324      1.07486074 S
atom       6.39190217      6.49486529      2.56338654 Mo
atom       7.97404530      7.36454291      4.13415147 S
atom       8.01445416      7.36845443      1.06945330 S
atom       4.84303192      9.17776560      2.64132001 Mo
atom       6.41080736     10.14595013      4.13540976 S
atom       6.38734379     10.11309304      1.07065351 S
atom       3.17694522     11.92058855      2.60243241 Mo
atom       4.76299971     12.84802878      4.13009643 S
atom       4.75876627     12.85208484      1.06786784 S
atom      12.71626883      0.91973591      2.60250049 Mo
atom      14.30379884      1.84494503      4.13713446 S
atom      14.30944027      1.84330353      1.07490496 S
atom      11.12694531      3.67252865      2.60251328 Mo
atom      12.72333969      4.59042241      4.13017590 S
atom      12.72205413      4.58472084      1.06793678 S
atom       9.55557842      6.42663142      2.61012800 Mo
atom      11.13002303      7.34870169      4.13827395 S
atom      11.12393767      7.34869134      1.06671324 S
atom       7.98264242      9.20178903      2.60242766 Mo
atom       9.55336686     10.10776777      4.14237662 S
atom       9.55269944     10.10906753      1.06256615 S
atom       6.36576619     11.95159239      2.59480911 Mo
atom       7.94845470     12.84866824      4.13830546 S
atom       7.95156147     12.85404732      1.06670410 S
# 
# What follows is the current estimated Hessian matrix constructed by the BFGS algorithm.
# This is NOT the true Hessian matrix of the system.
# If you do not want this information here, switch it off using the "hessian_to_restart_geometry" keyword.
# 
trust_radius             0.0002281734
hessian_file
