#=======================================================
# FHI-aims file: geometry_supercell.in
# Created using the Atomic Simulation Environment (ASE)
# Fri Jan 21 11:36:46 2022
#=======================================================
lattice_vector 35.0444209832327402 0.0000000000000000 0.0000000000000000 
lattice_vector 17.5222104916163701 30.3493588323959784 0.0000000000000000 
lattice_vector 0.0000000000000000 0.0000000000000000 107.1534124783503472 
atom 0.0000000000000000 0.0000000000000000 50.0000000000000000 Au
atom 1.4601842076346974 0.8430377453443327 52.3844708261167824 Au
atom 35.0444209832327402 1.6860754906886655 54.7689416522335648 Au
atom 0.0000000000000000 0.0000000000000000 57.1534124783503472 Au
atom 0.0000000000000000 0.0000000000000000 50.0000000000000000 Au
atom 1.4601842076346974 0.8430377453443327 52.3844708261167824 Au
atom 35.0444209832327402 1.6860754906886655 54.7689416522335648 Au
atom 0.0000000000000000 0.0000000000000000 57.1534124783503472 Au
atom 0.0000000000000000 0.0000000000000000 50.0000000000000000 Au
atom 1.4601842076346974 0.8430377453443327 52.3844708261167824 Au
atom 35.0444209832327402 1.6860754906886655 54.7689416522335648 Au
atom 0.0000000000000000 0.0000000000000000 57.1534124783503472 Au
atom 0.0000000000000000 0.0000000000000000 50.0000000000000000 Au
atom 1.4601842076346974 0.8430377453443327 52.3844708261167824 Au
atom 35.0444209832327402 1.6860754906886655 54.7689416522335648 Au
atom 0.0000000000000000 0.0000000000000000 57.1534124783503472 Au
atom 1.4601842076346974 2.5291132360329982 50.0000000000000000 Au
atom 2.9203684152693947 3.3721509813773309 52.3844708261167824 Au
atom 36.5046051908674372 4.2151887267216637 54.7689416522335648 Au
atom 1.4601842076346974 2.5291132360329982 57.1534124783503472 Au
atom 1.4601842076346974 2.5291132360329982 50.0000000000000000 Au
atom 2.9203684152693947 3.3721509813773309 52.3844708261167824 Au
atom 36.5046051908674372 4.2151887267216637 54.7689416522335648 Au
atom 1.4601842076346974 2.5291132360329982 57.1534124783503472 Au
atom 1.4601842076346974 2.5291132360329982 50.0000000000000000 Au
atom 2.9203684152693947 3.3721509813773309 52.3844708261167824 Au
atom 36.5046051908674372 4.2151887267216637 54.7689416522335648 Au
atom 1.4601842076346974 2.5291132360329982 57.1534124783503472 Au
atom 1.4601842076346974 2.5291132360329982 50.0000000000000000 Au
atom 2.9203684152693947 3.3721509813773309 52.3844708261167824 Au
atom 36.5046051908674372 4.2151887267216637 54.7689416522335648 Au
atom 1.4601842076346974 2.5291132360329982 57.1534124783503472 Au
atom 2.9203684152693947 5.0582264720659964 50.0000000000000000 Au
atom 4.3805526229040925 5.9012642174103291 52.3844708261167824 Au
atom 37.9647893985021341 6.7443019627546619 54.7689416522335648 Au
atom 2.9203684152693947 5.0582264720659964 57.1534124783503472 Au
atom 2.9203684152693947 5.0582264720659964 50.0000000000000000 Au
atom 4.3805526229040925 5.9012642174103291 52.3844708261167824 Au
atom 37.9647893985021341 6.7443019627546619 54.7689416522335648 Au
atom 2.9203684152693947 5.0582264720659964 57.1534124783503472 Au
atom 2.9203684152693947 5.0582264720659964 50.0000000000000000 Au
atom 4.3805526229040925 5.9012642174103291 52.3844708261167824 Au
atom 37.9647893985021341 6.7443019627546619 54.7689416522335648 Au
atom 2.9203684152693947 5.0582264720659964 57.1534124783503472 Au
atom 2.9203684152693947 5.0582264720659964 50.0000000000000000 Au
atom 4.3805526229040925 5.9012642174103291 52.3844708261167824 Au
atom 37.9647893985021341 6.7443019627546619 54.7689416522335648 Au
atom 2.9203684152693947 5.0582264720659964 57.1534124783503472 Au
atom 4.3805526229040925 7.5873397080989946 50.0000000000000000 Au
atom 5.8407368305387903 8.4303774534433273 52.3844708261167824 Au
atom 39.4249736061368310 9.2734151987876583 54.7689416522335648 Au
atom 4.3805526229040925 7.5873397080989946 57.1534124783503472 Au
atom 4.3805526229040925 7.5873397080989946 50.0000000000000000 Au
atom 5.8407368305387903 8.4303774534433273 52.3844708261167824 Au
atom 39.4249736061368310 9.2734151987876583 54.7689416522335648 Au
atom 4.3805526229040925 7.5873397080989946 57.1534124783503472 Au
atom 4.3805526229040925 7.5873397080989946 50.0000000000000000 Au
atom 5.8407368305387903 8.4303774534433273 52.3844708261167824 Au
atom 39.4249736061368310 9.2734151987876583 54.7689416522335648 Au
atom 4.3805526229040925 7.5873397080989946 57.1534124783503472 Au
atom 4.3805526229040925 7.5873397080989946 50.0000000000000000 Au
atom 5.8407368305387903 8.4303774534433273 52.3844708261167824 Au
atom 39.4249736061368310 9.2734151987876583 54.7689416522335648 Au
atom 4.3805526229040925 7.5873397080989946 57.1534124783503472 Au
atom 5.8407368305387894 10.1164529441319928 50.0000000000000000 Au
atom 7.3009210381734864 10.9594906894763255 52.3844708261167824 Au
atom 40.8851578137715279 11.8025284348206583 54.7689416522335648 Au
atom 5.8407368305387894 10.1164529441319928 57.1534124783503472 Au
atom 5.8407368305387894 10.1164529441319928 50.0000000000000000 Au
atom 7.3009210381734864 10.9594906894763255 52.3844708261167824 Au
atom 40.8851578137715279 11.8025284348206583 54.7689416522335648 Au
atom 5.8407368305387894 10.1164529441319928 57.1534124783503472 Au
atom 5.8407368305387894 10.1164529441319928 50.0000000000000000 Au
atom 7.3009210381734864 10.9594906894763255 52.3844708261167824 Au
atom 40.8851578137715279 11.8025284348206583 54.7689416522335648 Au
atom 5.8407368305387894 10.1164529441319928 57.1534124783503472 Au
atom 5.8407368305387894 10.1164529441319928 50.0000000000000000 Au
atom 7.3009210381734864 10.9594906894763255 52.3844708261167824 Au
atom 40.8851578137715279 11.8025284348206583 54.7689416522335648 Au
atom 5.8407368305387894 10.1164529441319928 57.1534124783503472 Au
atom 7.3009210381734873 12.6455661801649892 50.0000000000000000 Au
atom 8.7611052458081851 13.4886039255093220 52.3844708261167824 Au
atom 42.3453420214062248 14.3316416708536547 54.7689416522335648 Au
atom 7.3009210381734873 12.6455661801649892 57.1534124783503472 Au
atom 7.3009210381734873 12.6455661801649892 50.0000000000000000 Au
atom 8.7611052458081851 13.4886039255093220 52.3844708261167824 Au
atom 42.3453420214062248 14.3316416708536547 54.7689416522335648 Au
atom 7.3009210381734873 12.6455661801649892 57.1534124783503472 Au
atom 7.3009210381734873 12.6455661801649892 50.0000000000000000 Au
atom 8.7611052458081851 13.4886039255093220 52.3844708261167824 Au
atom 42.3453420214062248 14.3316416708536547 54.7689416522335648 Au
atom 7.3009210381734873 12.6455661801649892 57.1534124783503472 Au
atom 7.3009210381734873 12.6455661801649892 50.0000000000000000 Au
atom 8.7611052458081851 13.4886039255093220 52.3844708261167824 Au
atom 42.3453420214062248 14.3316416708536547 54.7689416522335648 Au
atom 7.3009210381734873 12.6455661801649892 57.1534124783503472 Au
atom 8.7611052458081833 15.1746794161979874 50.0000000000000000 Au
atom 10.2212894534428820 16.0177171615423219 52.3844708261167824 Au
atom 43.8055262290409289 16.8607549068866547 54.7689416522335648 Au
atom 8.7611052458081833 15.1746794161979874 57.1534124783503472 Au
atom 8.7611052458081833 15.1746794161979874 50.0000000000000000 Au
atom 10.2212894534428820 16.0177171615423219 52.3844708261167824 Au
atom 43.8055262290409289 16.8607549068866547 54.7689416522335648 Au
atom 8.7611052458081833 15.1746794161979874 57.1534124783503472 Au
atom 8.7611052458081833 15.1746794161979874 50.0000000000000000 Au
atom 10.2212894534428820 16.0177171615423219 52.3844708261167824 Au
atom 43.8055262290409289 16.8607549068866547 54.7689416522335648 Au
atom 8.7611052458081833 15.1746794161979874 57.1534124783503472 Au
atom 8.7611052458081833 15.1746794161979874 50.0000000000000000 Au
atom 10.2212894534428820 16.0177171615423219 52.3844708261167824 Au
atom 43.8055262290409289 16.8607549068866547 54.7689416522335648 Au
atom 8.7611052458081833 15.1746794161979874 57.1534124783503472 Au
atom 10.2212894534428820 17.7037926522309839 50.0000000000000000 Au
atom 11.6814736610775789 18.5468303975753166 52.3844708261167824 Au
atom 45.2657104366756187 19.3898681429196493 54.7689416522335648 Au
atom 10.2212894534428820 17.7037926522309839 57.1534124783503472 Au
atom 10.2212894534428820 17.7037926522309839 50.0000000000000000 Au
atom 11.6814736610775789 18.5468303975753166 52.3844708261167824 Au
atom 45.2657104366756187 19.3898681429196493 54.7689416522335648 Au
atom 10.2212894534428820 17.7037926522309839 57.1534124783503472 Au
atom 10.2212894534428820 17.7037926522309839 50.0000000000000000 Au
atom 11.6814736610775789 18.5468303975753166 52.3844708261167824 Au
atom 45.2657104366756187 19.3898681429196493 54.7689416522335648 Au
atom 10.2212894534428820 17.7037926522309839 57.1534124783503472 Au
atom 10.2212894534428820 17.7037926522309839 50.0000000000000000 Au
atom 11.6814736610775789 18.5468303975753166 52.3844708261167824 Au
atom 45.2657104366756187 19.3898681429196493 54.7689416522335648 Au
atom 10.2212894534428820 17.7037926522309839 57.1534124783503472 Au
atom 11.6814736610775789 20.2329058882639856 50.0000000000000000 Au
atom 13.1416578687122758 21.0759436336083184 52.3844708261167824 Au
atom 46.7258946443103227 21.9189813789526511 54.7689416522335648 Au
atom 11.6814736610775789 20.2329058882639856 57.1534124783503472 Au
atom 11.6814736610775789 20.2329058882639856 50.0000000000000000 Au
atom 13.1416578687122758 21.0759436336083184 52.3844708261167824 Au
atom 46.7258946443103227 21.9189813789526511 54.7689416522335648 Au
atom 11.6814736610775789 20.2329058882639856 57.1534124783503472 Au
atom 11.6814736610775789 20.2329058882639856 50.0000000000000000 Au
atom 13.1416578687122758 21.0759436336083184 52.3844708261167824 Au
atom 46.7258946443103227 21.9189813789526511 54.7689416522335648 Au
atom 11.6814736610775789 20.2329058882639856 57.1534124783503472 Au
atom 11.6814736610775789 20.2329058882639856 50.0000000000000000 Au
atom 13.1416578687122758 21.0759436336083184 52.3844708261167824 Au
atom 46.7258946443103227 21.9189813789526511 54.7689416522335648 Au
atom 11.6814736610775789 20.2329058882639856 57.1534124783503472 Au
atom 13.1416578687122776 22.7620191242969838 50.0000000000000000 Au
atom 14.6018420763469745 23.6050568696413166 52.3844708261167824 Au
atom 48.1860788519450196 24.4480946149856493 54.7689416522335648 Au
atom 13.1416578687122776 22.7620191242969838 57.1534124783503472 Au
atom 13.1416578687122776 22.7620191242969838 50.0000000000000000 Au
atom 14.6018420763469745 23.6050568696413166 52.3844708261167824 Au
atom 48.1860788519450196 24.4480946149856493 54.7689416522335648 Au
atom 13.1416578687122776 22.7620191242969838 57.1534124783503472 Au
atom 13.1416578687122776 22.7620191242969838 50.0000000000000000 Au
atom 14.6018420763469745 23.6050568696413166 52.3844708261167824 Au
atom 48.1860788519450196 24.4480946149856493 54.7689416522335648 Au
atom 13.1416578687122776 22.7620191242969838 57.1534124783503472 Au
atom 13.1416578687122776 22.7620191242969838 50.0000000000000000 Au
atom 14.6018420763469745 23.6050568696413166 52.3844708261167824 Au
atom 48.1860788519450196 24.4480946149856493 54.7689416522335648 Au
atom 13.1416578687122776 22.7620191242969838 57.1534124783503472 Au
atom 14.6018420763469745 25.2911323603299785 50.0000000000000000 Au
atom 16.0620262839816732 26.1341701056743112 52.3844708261167824 Au
atom 49.6462630595797094 26.9772078510186439 54.7689416522335648 Au
atom 14.6018420763469745 25.2911323603299785 57.1534124783503472 Au
atom 14.6018420763469745 25.2911323603299785 50.0000000000000000 Au
atom 16.0620262839816732 26.1341701056743112 52.3844708261167824 Au
atom 49.6462630595797094 26.9772078510186439 54.7689416522335648 Au
atom 14.6018420763469745 25.2911323603299785 57.1534124783503472 Au
atom 14.6018420763469745 25.2911323603299785 50.0000000000000000 Au
atom 16.0620262839816732 26.1341701056743112 52.3844708261167824 Au
atom 49.6462630595797094 26.9772078510186439 54.7689416522335648 Au
atom 14.6018420763469745 25.2911323603299785 57.1534124783503472 Au
atom 14.6018420763469745 25.2911323603299785 50.0000000000000000 Au
atom 16.0620262839816732 26.1341701056743112 52.3844708261167824 Au
atom 49.6462630595797094 26.9772078510186439 54.7689416522335648 Au
atom 14.6018420763469745 25.2911323603299785 57.1534124783503472 Au
atom 16.0620262839816732 27.8202455963629802 50.0000000000000000 Au
atom 17.5222104916163701 28.6632833417073130 52.3844708261167824 Au
atom 51.1064472672144134 29.5063210870516457 54.7689416522335648 Au
atom 16.0620262839816732 27.8202455963629802 57.1534124783503472 Au
atom 16.0620262839816732 27.8202455963629802 50.0000000000000000 Au
atom 17.5222104916163701 28.6632833417073130 52.3844708261167824 Au
atom 51.1064472672144134 29.5063210870516457 54.7689416522335648 Au
atom 16.0620262839816732 27.8202455963629802 57.1534124783503472 Au
atom 16.0620262839816732 27.8202455963629802 50.0000000000000000 Au
atom 17.5222104916163701 28.6632833417073130 52.3844708261167824 Au
atom 51.1064472672144134 29.5063210870516457 54.7689416522335648 Au
atom 16.0620262839816732 27.8202455963629802 57.1534124783503472 Au
atom 16.0620262839816732 27.8202455963629802 50.0000000000000000 Au
atom 17.5222104916163701 28.6632833417073130 52.3844708261167824 Au
atom 51.1064472672144134 29.5063210870516457 54.7689416522335648 Au
atom 16.0620262839816732 27.8202455963629802 57.1534124783503472 Au
atom 2.9203684152693947 0.0000000000000000 50.0000000000000000 Au
atom 4.3805526229040925 0.8430377453443327 52.3844708261167824 Au
atom 2.9203684152693947 1.6860754906886655 54.7689416522335648 Au
atom 2.9203684152693947 0.0000000000000000 57.1534124783503472 Au
atom 2.9203684152693947 0.0000000000000000 50.0000000000000000 Au
atom 4.3805526229040925 0.8430377453443327 52.3844708261167824 Au
atom 2.9203684152693947 1.6860754906886655 54.7689416522335648 Au
atom 2.9203684152693947 0.0000000000000000 57.1534124783503472 Au
atom 2.9203684152693947 0.0000000000000000 50.0000000000000000 Au
atom 4.3805526229040925 0.8430377453443327 52.3844708261167824 Au
atom 2.9203684152693947 1.6860754906886655 54.7689416522335648 Au
atom 2.9203684152693947 0.0000000000000000 57.1534124783503472 Au
atom 2.9203684152693947 0.0000000000000000 50.0000000000000000 Au
atom 4.3805526229040925 0.8430377453443327 52.3844708261167824 Au
atom 2.9203684152693947 1.6860754906886655 54.7689416522335648 Au
atom 2.9203684152693947 0.0000000000000000 57.1534124783503472 Au
atom 4.3805526229040925 2.5291132360329982 50.0000000000000000 Au
atom 5.8407368305387894 3.3721509813773309 52.3844708261167824 Au
atom 4.3805526229040925 4.2151887267216637 54.7689416522335648 Au
atom 4.3805526229040925 2.5291132360329982 57.1534124783503472 Au
atom 4.3805526229040925 2.5291132360329982 50.0000000000000000 Au
atom 5.8407368305387894 3.3721509813773309 52.3844708261167824 Au
atom 4.3805526229040925 4.2151887267216637 54.7689416522335648 Au
atom 4.3805526229040925 2.5291132360329982 57.1534124783503472 Au
atom 4.3805526229040925 2.5291132360329982 50.0000000000000000 Au
atom 5.8407368305387894 3.3721509813773309 52.3844708261167824 Au
atom 4.3805526229040925 4.2151887267216637 54.7689416522335648 Au
atom 4.3805526229040925 2.5291132360329982 57.1534124783503472 Au
atom 4.3805526229040925 2.5291132360329982 50.0000000000000000 Au
atom 5.8407368305387894 3.3721509813773309 52.3844708261167824 Au
atom 4.3805526229040925 4.2151887267216637 54.7689416522335648 Au
atom 4.3805526229040925 2.5291132360329982 57.1534124783503472 Au
atom 5.8407368305387894 5.0582264720659964 50.0000000000000000 Au
atom 7.3009210381734864 5.9012642174103291 52.3844708261167824 Au
atom 5.8407368305387894 6.7443019627546619 54.7689416522335648 Au
atom 5.8407368305387894 5.0582264720659964 57.1534124783503472 Au
atom 5.8407368305387894 5.0582264720659964 50.0000000000000000 Au
atom 7.3009210381734864 5.9012642174103291 52.3844708261167824 Au
atom 5.8407368305387894 6.7443019627546619 54.7689416522335648 Au
atom 5.8407368305387894 5.0582264720659964 57.1534124783503472 Au
atom 5.8407368305387894 5.0582264720659964 50.0000000000000000 Au
atom 7.3009210381734864 5.9012642174103291 52.3844708261167824 Au
atom 5.8407368305387894 6.7443019627546619 54.7689416522335648 Au
atom 5.8407368305387894 5.0582264720659964 57.1534124783503472 Au
atom 5.8407368305387894 5.0582264720659964 50.0000000000000000 Au
atom 7.3009210381734864 5.9012642174103291 52.3844708261167824 Au
atom 5.8407368305387894 6.7443019627546619 54.7689416522335648 Au
atom 5.8407368305387894 5.0582264720659964 57.1534124783503472 Au
atom 7.3009210381734873 7.5873397080989946 50.0000000000000000 Au
atom 8.7611052458081851 8.4303774534433273 52.3844708261167824 Au
atom 7.3009210381734873 9.2734151987876583 54.7689416522335648 Au
atom 7.3009210381734873 7.5873397080989946 57.1534124783503472 Au
atom 7.3009210381734873 7.5873397080989946 50.0000000000000000 Au
atom 8.7611052458081851 8.4303774534433273 52.3844708261167824 Au
atom 7.3009210381734873 9.2734151987876583 54.7689416522335648 Au
atom 7.3009210381734873 7.5873397080989946 57.1534124783503472 Au
atom 7.3009210381734873 7.5873397080989946 50.0000000000000000 Au
atom 8.7611052458081851 8.4303774534433273 52.3844708261167824 Au
atom 7.3009210381734873 9.2734151987876583 54.7689416522335648 Au
atom 7.3009210381734873 7.5873397080989946 57.1534124783503472 Au
atom 7.3009210381734873 7.5873397080989946 50.0000000000000000 Au
atom 8.7611052458081851 8.4303774534433273 52.3844708261167824 Au
atom 7.3009210381734873 9.2734151987876583 54.7689416522335648 Au
atom 7.3009210381734873 7.5873397080989946 57.1534124783503472 Au
atom 8.7611052458081851 10.1164529441319928 50.0000000000000000 Au
atom 10.2212894534428820 10.9594906894763255 52.3844708261167824 Au
atom 8.7611052458081851 11.8025284348206583 54.7689416522335648 Au
atom 8.7611052458081851 10.1164529441319928 57.1534124783503472 Au
atom 8.7611052458081851 10.1164529441319928 50.0000000000000000 Au
atom 10.2212894534428820 10.9594906894763255 52.3844708261167824 Au
atom 8.7611052458081851 11.8025284348206583 54.7689416522335648 Au
atom 8.7611052458081851 10.1164529441319928 57.1534124783503472 Au
atom 8.7611052458081851 10.1164529441319928 50.0000000000000000 Au
atom 10.2212894534428820 10.9594906894763255 52.3844708261167824 Au
atom 8.7611052458081851 11.8025284348206583 54.7689416522335648 Au
atom 8.7611052458081851 10.1164529441319928 57.1534124783503472 Au
atom 8.7611052458081851 10.1164529441319928 50.0000000000000000 Au
atom 10.2212894534428820 10.9594906894763255 52.3844708261167824 Au
atom 8.7611052458081851 11.8025284348206583 54.7689416522335648 Au
atom 8.7611052458081851 10.1164529441319928 57.1534124783503472 Au
atom 10.2212894534428820 12.6455661801649892 50.0000000000000000 Au
atom 11.6814736610775789 13.4886039255093220 52.3844708261167824 Au
atom 10.2212894534428820 14.3316416708536547 54.7689416522335648 Au
atom 10.2212894534428820 12.6455661801649892 57.1534124783503472 Au
atom 10.2212894534428820 12.6455661801649892 50.0000000000000000 Au
atom 11.6814736610775789 13.4886039255093220 52.3844708261167824 Au
atom 10.2212894534428820 14.3316416708536547 54.7689416522335648 Au
atom 10.2212894534428820 12.6455661801649892 57.1534124783503472 Au
atom 10.2212894534428820 12.6455661801649892 50.0000000000000000 Au
atom 11.6814736610775789 13.4886039255093220 52.3844708261167824 Au
atom 10.2212894534428820 14.3316416708536547 54.7689416522335648 Au
atom 10.2212894534428820 12.6455661801649892 57.1534124783503472 Au
atom 10.2212894534428820 12.6455661801649892 50.0000000000000000 Au
atom 11.6814736610775789 13.4886039255093220 52.3844708261167824 Au
atom 10.2212894534428820 14.3316416708536547 54.7689416522335648 Au
atom 10.2212894534428820 12.6455661801649892 57.1534124783503472 Au
atom 11.6814736610775771 15.1746794161979874 50.0000000000000000 Au
atom 13.1416578687122758 16.0177171615423219 52.3844708261167824 Au
atom 11.6814736610775807 16.8607549068866547 54.7689416522335648 Au
atom 11.6814736610775771 15.1746794161979874 57.1534124783503472 Au
atom 11.6814736610775771 15.1746794161979874 50.0000000000000000 Au
atom 13.1416578687122758 16.0177171615423219 52.3844708261167824 Au
atom 11.6814736610775807 16.8607549068866547 54.7689416522335648 Au
atom 11.6814736610775771 15.1746794161979874 57.1534124783503472 Au
atom 11.6814736610775771 15.1746794161979874 50.0000000000000000 Au
atom 13.1416578687122758 16.0177171615423219 52.3844708261167824 Au
atom 11.6814736610775807 16.8607549068866547 54.7689416522335648 Au
atom 11.6814736610775771 15.1746794161979874 57.1534124783503472 Au
atom 11.6814736610775771 15.1746794161979874 50.0000000000000000 Au
atom 13.1416578687122758 16.0177171615423219 52.3844708261167824 Au
atom 11.6814736610775807 16.8607549068866547 54.7689416522335648 Au
atom 11.6814736610775771 15.1746794161979874 57.1534124783503472 Au
atom 13.1416578687122758 17.7037926522309839 50.0000000000000000 Au
atom 14.6018420763469727 18.5468303975753166 52.3844708261167824 Au
atom 13.1416578687122758 19.3898681429196493 54.7689416522335648 Au
atom 13.1416578687122758 17.7037926522309839 57.1534124783503472 Au
atom 13.1416578687122758 17.7037926522309839 50.0000000000000000 Au
atom 14.6018420763469727 18.5468303975753166 52.3844708261167824 Au
atom 13.1416578687122758 19.3898681429196493 54.7689416522335648 Au
atom 13.1416578687122758 17.7037926522309839 57.1534124783503472 Au
atom 13.1416578687122758 17.7037926522309839 50.0000000000000000 Au
atom 14.6018420763469727 18.5468303975753166 52.3844708261167824 Au
atom 13.1416578687122758 19.3898681429196493 54.7689416522335648 Au
atom 13.1416578687122758 17.7037926522309839 57.1534124783503472 Au
atom 13.1416578687122758 17.7037926522309839 50.0000000000000000 Au
atom 14.6018420763469727 18.5468303975753166 52.3844708261167824 Au
atom 13.1416578687122758 19.3898681429196493 54.7689416522335648 Au
atom 13.1416578687122758 17.7037926522309839 57.1534124783503472 Au
atom 14.6018420763469745 20.2329058882639856 50.0000000000000000 Au
atom 16.0620262839816732 21.0759436336083184 52.3844708261167824 Au
atom 14.6018420763469745 21.9189813789526511 54.7689416522335648 Au
atom 14.6018420763469745 20.2329058882639856 57.1534124783503472 Au
atom 14.6018420763469745 20.2329058882639856 50.0000000000000000 Au
atom 16.0620262839816732 21.0759436336083184 52.3844708261167824 Au
atom 14.6018420763469745 21.9189813789526511 54.7689416522335648 Au
atom 14.6018420763469745 20.2329058882639856 57.1534124783503472 Au
atom 14.6018420763469745 20.2329058882639856 50.0000000000000000 Au
atom 16.0620262839816732 21.0759436336083184 52.3844708261167824 Au
atom 14.6018420763469745 21.9189813789526511 54.7689416522335648 Au
atom 14.6018420763469745 20.2329058882639856 57.1534124783503472 Au
atom 14.6018420763469745 20.2329058882639856 50.0000000000000000 Au
atom 16.0620262839816732 21.0759436336083184 52.3844708261167824 Au
atom 14.6018420763469745 21.9189813789526511 54.7689416522335648 Au
atom 14.6018420763469745 20.2329058882639856 57.1534124783503472 Au
atom 16.0620262839816732 22.7620191242969838 50.0000000000000000 Au
atom 17.5222104916163701 23.6050568696413166 52.3844708261167824 Au
atom 16.0620262839816732 24.4480946149856493 54.7689416522335648 Au
atom 16.0620262839816732 22.7620191242969838 57.1534124783503472 Au
atom 16.0620262839816732 22.7620191242969838 50.0000000000000000 Au
atom 17.5222104916163701 23.6050568696413166 52.3844708261167824 Au
atom 16.0620262839816732 24.4480946149856493 54.7689416522335648 Au
atom 16.0620262839816732 22.7620191242969838 57.1534124783503472 Au
atom 16.0620262839816732 22.7620191242969838 50.0000000000000000 Au
atom 17.5222104916163701 23.6050568696413166 52.3844708261167824 Au
atom 16.0620262839816732 24.4480946149856493 54.7689416522335648 Au
atom 16.0620262839816732 22.7620191242969838 57.1534124783503472 Au
atom 16.0620262839816732 22.7620191242969838 50.0000000000000000 Au
atom 17.5222104916163701 23.6050568696413166 52.3844708261167824 Au
atom 16.0620262839816732 24.4480946149856493 54.7689416522335648 Au
atom 16.0620262839816732 22.7620191242969838 57.1534124783503472 Au
atom 17.5222104916163701 25.2911323603299785 50.0000000000000000 Au
atom 18.9823946992510670 26.1341701056743112 52.3844708261167824 Au
atom 17.5222104916163701 26.9772078510186439 54.7689416522335648 Au
atom 17.5222104916163701 25.2911323603299785 57.1534124783503472 Au
atom 17.5222104916163701 25.2911323603299785 50.0000000000000000 Au
atom 18.9823946992510670 26.1341701056743112 52.3844708261167824 Au
atom 17.5222104916163701 26.9772078510186439 54.7689416522335648 Au
atom 17.5222104916163701 25.2911323603299785 57.1534124783503472 Au
atom 17.5222104916163701 25.2911323603299785 50.0000000000000000 Au
atom 18.9823946992510670 26.1341701056743112 52.3844708261167824 Au
atom 17.5222104916163701 26.9772078510186439 54.7689416522335648 Au
atom 17.5222104916163701 25.2911323603299785 57.1534124783503472 Au
atom 17.5222104916163701 25.2911323603299785 50.0000000000000000 Au
atom 18.9823946992510670 26.1341701056743112 52.3844708261167824 Au
atom 17.5222104916163701 26.9772078510186439 54.7689416522335648 Au
atom 17.5222104916163701 25.2911323603299785 57.1534124783503472 Au
atom 18.9823946992510670 27.8202455963629802 50.0000000000000000 Au
atom 20.4425789068857640 28.6632833417073130 52.3844708261167824 Au
atom 18.9823946992510670 29.5063210870516457 54.7689416522335648 Au
atom 18.9823946992510670 27.8202455963629802 57.1534124783503472 Au
atom 18.9823946992510670 27.8202455963629802 50.0000000000000000 Au
atom 20.4425789068857640 28.6632833417073130 52.3844708261167824 Au
atom 18.9823946992510670 29.5063210870516457 54.7689416522335648 Au
atom 18.9823946992510670 27.8202455963629802 57.1534124783503472 Au
atom 18.9823946992510670 27.8202455963629802 50.0000000000000000 Au
atom 20.4425789068857640 28.6632833417073130 52.3844708261167824 Au
atom 18.9823946992510670 29.5063210870516457 54.7689416522335648 Au
atom 18.9823946992510670 27.8202455963629802 57.1534124783503472 Au
atom 18.9823946992510670 27.8202455963629802 50.0000000000000000 Au
atom 20.4425789068857640 28.6632833417073130 52.3844708261167824 Au
atom 18.9823946992510670 29.5063210870516457 54.7689416522335648 Au
atom 18.9823946992510670 27.8202455963629802 57.1534124783503472 Au
atom 5.8407368305387894 0.0000000000000000 50.0000000000000000 Au
atom 7.3009210381734864 0.8430377453443327 52.3844708261167824 Au
atom 5.8407368305387894 1.6860754906886655 54.7689416522335648 Au
atom 5.8407368305387894 0.0000000000000000 57.1534124783503472 Au
atom 5.8407368305387894 0.0000000000000000 50.0000000000000000 Au
atom 7.3009210381734864 0.8430377453443327 52.3844708261167824 Au
atom 5.8407368305387894 1.6860754906886655 54.7689416522335648 Au
atom 5.8407368305387894 0.0000000000000000 57.1534124783503472 Au
atom 5.8407368305387894 0.0000000000000000 50.0000000000000000 Au
atom 7.3009210381734864 0.8430377453443327 52.3844708261167824 Au
atom 5.8407368305387894 1.6860754906886655 54.7689416522335648 Au
atom 5.8407368305387894 0.0000000000000000 57.1534124783503472 Au
atom 5.8407368305387894 0.0000000000000000 50.0000000000000000 Au
atom 7.3009210381734864 0.8430377453443327 52.3844708261167824 Au
atom 5.8407368305387894 1.6860754906886655 54.7689416522335648 Au
atom 5.8407368305387894 0.0000000000000000 57.1534124783503472 Au
atom 7.3009210381734873 2.5291132360329982 50.0000000000000000 Au
atom 8.7611052458081851 3.3721509813773309 52.3844708261167824 Au
atom 7.3009210381734873 4.2151887267216637 54.7689416522335648 Au
atom 7.3009210381734873 2.5291132360329982 57.1534124783503472 Au
atom 7.3009210381734873 2.5291132360329982 50.0000000000000000 Au
atom 8.7611052458081851 3.3721509813773309 52.3844708261167824 Au
atom 7.3009210381734873 4.2151887267216637 54.7689416522335648 Au
atom 7.3009210381734873 2.5291132360329982 57.1534124783503472 Au
atom 7.3009210381734873 2.5291132360329982 50.0000000000000000 Au
atom 8.7611052458081851 3.3721509813773309 52.3844708261167824 Au
atom 7.3009210381734873 4.2151887267216637 54.7689416522335648 Au
atom 7.3009210381734873 2.5291132360329982 57.1534124783503472 Au
atom 7.3009210381734873 2.5291132360329982 50.0000000000000000 Au
atom 8.7611052458081851 3.3721509813773309 52.3844708261167824 Au
atom 7.3009210381734873 4.2151887267216637 54.7689416522335648 Au
atom 7.3009210381734873 2.5291132360329982 57.1534124783503472 Au
atom 8.7611052458081851 5.0582264720659964 50.0000000000000000 Au
atom 10.2212894534428820 5.9012642174103291 52.3844708261167824 Au
atom 8.7611052458081851 6.7443019627546619 54.7689416522335648 Au
atom 8.7611052458081851 5.0582264720659964 57.1534124783503472 Au
atom 8.7611052458081851 5.0582264720659964 50.0000000000000000 Au
atom 10.2212894534428820 5.9012642174103291 52.3844708261167824 Au
atom 8.7611052458081851 6.7443019627546619 54.7689416522335648 Au
atom 8.7611052458081851 5.0582264720659964 57.1534124783503472 Au
atom 8.7611052458081851 5.0582264720659964 50.0000000000000000 Au
atom 10.2212894534428820 5.9012642174103291 52.3844708261167824 Au
atom 8.7611052458081851 6.7443019627546619 54.7689416522335648 Au
atom 8.7611052458081851 5.0582264720659964 57.1534124783503472 Au
atom 8.7611052458081851 5.0582264720659964 50.0000000000000000 Au
atom 10.2212894534428820 5.9012642174103291 52.3844708261167824 Au
atom 8.7611052458081851 6.7443019627546619 54.7689416522335648 Au
atom 8.7611052458081851 5.0582264720659964 57.1534124783503472 Au
atom 10.2212894534428820 7.5873397080989946 50.0000000000000000 Au
atom 11.6814736610775789 8.4303774534433273 52.3844708261167824 Au
atom 10.2212894534428820 9.2734151987876583 54.7689416522335648 Au
atom 10.2212894534428820 7.5873397080989946 57.1534124783503472 Au
atom 10.2212894534428820 7.5873397080989946 50.0000000000000000 Au
atom 11.6814736610775789 8.4303774534433273 52.3844708261167824 Au
atom 10.2212894534428820 9.2734151987876583 54.7689416522335648 Au
atom 10.2212894534428820 7.5873397080989946 57.1534124783503472 Au