#=======================================================
# FHI-aims file: geometry_mos2.in
# Created using the Atomic Simulation Environment (ASE)
# Fri Jan 21 11:36:46 2022
#=======================================================
lattice_vector 34.6904666900000009 -0.0020505100000000 0.0000000000000000 
lattice_vector -17.3467631699999991 30.0415867399999996 0.0000000000000000 
lattice_vector 0.0000000000000000 0.0000000000000000 103.1379633399999989 
atom 16.5552842900000066 29.5844406800000002 51.5689816699999923 Mo
atom 0.7884078700000000 0.4551044800000000 53.1379633399999989 S
atom 0.7884078700000000 0.4551044800000000 49.9999999999999929 S
atom 32.3250689900000054 2.2739072799999995 51.5689816699999923 Mo
atom -0.7885706000000001 3.1861578200000000 53.1379633399999989 S
atom -0.7885706000000001 3.1861578200000000 49.9999999999999929 S
atom 30.7480905200000052 5.0049606200000003 51.5689816699999923 Mo
atom -2.3655490700000001 5.9172111599999999 53.1379633399999989 S
atom -2.3655490700000001 5.9172111599999999 49.9999999999999929 S
atom 29.1711120500000050 7.7360139599999975 51.5689816699999923 Mo
atom -3.9425275399999995 8.6482644999999980 53.1379633399999989 S
atom -3.9425275399999995 8.6482644999999980 49.9999999999999929 S
atom 27.5941335800000047 10.4670673000000001 51.5689816699999923 Mo
atom -5.5195060099999997 11.3793178399999988 53.1379633399999989 S
atom -5.5195060099999997 11.3793178399999988 49.9999999999999929 S
atom 26.0171551100000045 13.1981206400000008 51.5689816699999923 Mo
atom -7.0964844800000000 14.1103711799999996 53.1379633399999989 S
atom -7.0964844800000000 14.1103711799999996 49.9999999999999929 S
atom 24.4401766400000042 15.9291739799999981 51.5689816699999923 Mo
atom -8.6734629499999993 16.8414245199999968 53.1379633399999989 S
atom -8.6734629499999993 16.8414245199999968 49.9999999999999929 S
atom 22.8631981700000040 18.6602273200000006 51.5689816699999923 Mo
atom -10.2504414199999996 19.5724778600000029 53.1379633399999989 S
atom -10.2504414199999996 19.5724778600000029 49.9999999999999929 S
atom 21.2862197000000037 21.3912806599999996 51.5689816699999923 Mo
atom -11.8274198899999998 22.3035311999999983 53.1379633399999989 S
atom -11.8274198899999998 22.3035311999999983 49.9999999999999929 S
atom 19.7092412300000035 24.1223340000000057 51.5689816699999923 Mo
atom -13.4043983600000001 25.0345845400000009 53.1379633399999989 S
atom -13.4043983600000001 25.0345845400000009 49.9999999999999929 S
atom 18.1322627600000033 26.8533873400000012 51.5689816699999923 Mo
atom -14.9813768300000003 27.7656378799999999 53.1379633399999989 S
atom -14.9813768300000003 27.7656378799999999 49.9999999999999929 S
atom -14.9815036099999990 29.5863047799999990 51.5689816699999923 Mo
atom 3.9420866600000006 0.4549180700000000 53.1379633399999989 S
atom 3.9420866600000006 0.4549180700000000 49.9999999999999929 S
atom 0.7882810900000002 2.2757713800000006 51.5689816699999923 Mo
atom 2.3651081900000004 3.1859714100000001 53.1379633399999989 S
atom 2.3651081900000004 3.1859714100000001 49.9999999999999929 S
atom -0.7886973799999994 5.0068247200000000 51.5689816699999923 Mo
atom 0.7881297200000001 5.9170247500000004 53.1379633399999989 S
atom 0.7881297200000001 5.9170247500000004 49.9999999999999929 S
atom -2.3656758499999992 7.7378780599999990 51.5689816699999923 Mo
atom -0.7888487499999984 8.6480780900000003 53.1379633399999989 S
atom -0.7888487499999984 8.6480780900000003 49.9999999999999929 S
atom -3.9426543199999999 10.4689314000000007 51.5689816699999923 Mo
atom -2.3658272199999999 11.3791314299999993 53.1379633399999989 S
atom -2.3658272199999999 11.3791314299999993 49.9999999999999929 S
atom -5.5196327899999993 13.1999847400000014 51.5689816699999923 Mo
atom -3.9428056900000001 14.1101847700000000 53.1379633399999989 S
atom -3.9428056900000001 14.1101847700000000 49.9999999999999929 S
atom -7.0966112599999995 15.9310380800000022 51.5689816699999923 Mo
atom -5.5197841599999986 16.8412381099999990 53.1379633399999989 S
atom -5.5197841599999986 16.8412381099999990 49.9999999999999929 S
atom -8.6735897299999998 18.6620914199999994 51.5689816699999923 Mo
atom -7.0967626299999989 19.5722914499999980 53.1379633399999989 S
atom -7.0967626299999989 19.5722914499999980 49.9999999999999929 S
atom -10.2505682000000000 21.3931447600000055 51.5689816699999923 Mo
atom -8.6737410999999991 22.3033447900000006 53.1379633399999989 S
atom -8.6737410999999991 22.3033447900000006 49.9999999999999929 S
atom -11.8275466700000003 24.1241981000000010 51.5689816699999923 Mo
atom -10.2507195699999993 25.0343981299999996 53.1379633399999989 S
atom -10.2507195699999993 25.0343981299999996 49.9999999999999929 S
atom -13.4045251400000005 26.8552514400000035 51.5689816699999923 Mo
atom -11.8276980399999996 27.7654514700000057 53.1379633399999989 S
atom -11.8276980399999996 27.7654514700000057 49.9999999999999929 S
atom -11.8278248199999982 29.5861183700000012 51.5689816699999923 Mo
atom 7.0957654500000009 0.4547316600000000 53.1379633399999989 S
atom 7.0957654500000009 0.4547316600000000 49.9999999999999929 S
atom 3.9419598799999997 2.2755849699999997 51.5689816699999923 Mo
atom 5.5187869799999998 3.1857850000000001 53.1379633399999989 S
atom 5.5187869799999998 3.1857850000000001 49.9999999999999929 S
atom 2.3649814100000004 5.0066383100000005 51.5689816699999923 Mo
atom 3.9418085100000004 5.9168383400000000 53.1379633399999989 S
atom 3.9418085100000004 5.9168383400000000 49.9999999999999929 S
atom 0.7880029400000009 7.7376916499999995 51.5689816699999923 Mo
atom 2.3648300400000015 8.6478916800000007 53.1379633399999989 S
atom 2.3648300400000015 8.6478916800000007 49.9999999999999929 S
atom -0.7889755299999995 10.4687449900000011 51.5689816699999923 Mo
atom 0.7878515700000009 11.3789450200000015 53.1379633399999989 S
atom 0.7878515700000009 11.3789450200000015 49.9999999999999929 S
atom -2.3659539999999990 13.1997983300000019 51.5689816699999923 Mo
atom -0.7891268999999994 14.1099983600000005 53.1379633399999989 S
atom -0.7891268999999994 14.1099983600000005 49.9999999999999929 S
atom -3.9429324699999992 15.9308516699999991 51.5689816699999923 Mo
atom -2.3661053699999979 16.8410516999999977 53.1379633399999989 S
atom -2.3661053699999979 16.8410516999999977 49.9999999999999929 S
atom -5.5199109399999990 18.6619050099999981 51.5689816699999923 Mo
atom -3.9430838399999986 19.5721050400000003 53.1379633399999989 S
atom -3.9430838399999986 19.5721050400000003 49.9999999999999929 S
atom -7.0968894099999966 21.3929583500000007 51.5689816699999923 Mo
atom -5.5200623099999993 22.3031583799999993 53.1379633399999989 S
atom -5.5200623099999993 22.3031583799999993 49.9999999999999929 S
atom -8.6738678799999995 24.1240116900000032 51.5689816699999923 Mo
atom -7.0970407800000004 25.0342117200000018 53.1379633399999989 S
atom -7.0970407800000004 25.0342117200000018 49.9999999999999929 S
atom -10.2508463499999998 26.8550650300000022 51.5689816699999923 Mo
atom -8.6740192499999988 27.7652650600000044 53.1379633399999989 S
atom -8.6740192499999988 27.7652650600000044 49.9999999999999929 S
atom -8.6741460299999993 29.5859319599999999 51.5689816699999923 Mo
atom 10.2494442400000025 0.4545452500000000 53.1379633399999989 S
atom 10.2494442400000025 0.4545452500000000 49.9999999999999929 S
atom 7.0956386699999996 2.2753985600000006 51.5689816699999923 Mo
atom 8.6724657700000023 3.1855985900000001 53.1379633399999989 S
atom 8.6724657700000023 3.1855985900000001 49.9999999999999929 S
atom 5.5186602000000020 5.0064519000000001 51.5689816699999923 Mo
atom 7.0954873000000029 5.9166519300000004 53.1379633399999989 S
atom 7.0954873000000029 5.9166519300000004 49.9999999999999929 S
atom 3.9416817300000000 7.7375052399999982 51.5689816699999923 Mo
atom 5.5185088300000018 8.6477052699999977 53.1379633399999989 S
atom 5.5185088300000018 8.6477052699999977 49.9999999999999929 S
atom 2.3647032600000011 10.4685585800000016 51.5689816699999923 Mo
atom 3.9415303600000025 11.3787586100000002 53.1379633399999989 S
atom 3.9415303600000025 11.3787586100000002 49.9999999999999929 S
atom 0.7877247899999998 13.1996119200000006 51.5689816699999923 Mo
atom 2.3645518900000022 14.1098119500000010 53.1379633399999989 S
atom 2.3645518900000022 14.1098119500000010 49.9999999999999929 S
atom -0.7892536799999986 15.9306652599999978 51.5689816699999923 Mo
atom 0.7875734200000029 16.8408652899999964 53.1379633399999989 S
atom 0.7875734200000029 16.8408652899999964 49.9999999999999929 S
atom -2.3662321499999992 18.6617186000000004 51.5689816699999923 Mo
atom -0.7894050499999978 19.5719186300000025 53.1379633399999989 S
atom -0.7894050499999978 19.5719186300000025 49.9999999999999929 S
atom -3.9432106199999977 21.3927719399999994 51.5689816699999923 Mo
atom -2.3663835199999999 22.3029719699999944 53.1379633399999989 S
atom -2.3663835199999999 22.3029719699999944 49.9999999999999929 S
atom -5.5201890900000006 24.1238252800000055 51.5689816699999923 Mo
atom -3.9433619899999983 25.0340253100000005 53.1379633399999989 S
atom -3.9433619899999983 25.0340253100000005 49.9999999999999929 S
atom -7.0971675600000008 26.8548786200000045 51.5689816699999923 Mo
atom -5.5203404599999990 27.7650786500000031 53.1379633399999989 S
atom -5.5203404599999990 27.7650786500000031 49.9999999999999929 S
atom -5.5204672399999986 29.5857455499999986 51.5689816699999923 Mo
atom 13.4031230300000015 0.4543588400000000 53.1379633399999989 S
atom 13.4031230300000015 0.4543588400000000 49.9999999999999929 S
atom 10.2493174599999985 2.2752121499999998 51.5689816699999923 Mo
atom 11.8261445600000012 3.1854121800000001 53.1379633399999989 S
atom 11.8261445600000012 3.1854121800000001 49.9999999999999929 S
atom 8.6723389899999983 5.0062654900000005 51.5689816699999923 Mo
atom 10.2491660900000010 5.9164655200000000 53.1379633399999989 S
atom 10.2491660900000010 5.9164655200000000 49.9999999999999929 S
atom 7.0953605200000007 7.7373188299999978 51.5689816699999923 Mo
atom 8.6721876200000008 8.6475188599999981 53.1379633399999989 S
atom 8.6721876200000008 8.6475188599999981 49.9999999999999929 S
atom 5.5183820500000014 10.4683721700000003 51.5689816699999923 Mo
atom 7.0952091500000005 11.3785721999999989 53.1379633399999989 S
atom 7.0952091500000005 11.3785721999999989 49.9999999999999929 S
atom 3.9414035800000007 13.1994255100000011 51.5689816699999923 Mo
atom 5.5182306800000003 14.1096255399999997 53.1379633399999989 S
atom 5.5182306800000003 14.1096255399999997 49.9999999999999929 S
atom 2.3644251100000022 15.9304788499999983 51.5689816699999923 Mo
atom 3.9412522100000018 16.8406788799999987 53.1379633399999989 S
atom 3.9412522100000018 16.8406788799999987 49.9999999999999929 S
atom 0.7874466400000016 18.6615321899999991 51.5689816699999923 Mo
atom 2.3642737400000011 19.5717322199999977 53.1379633399999989 S
atom 2.3642737400000011 19.5717322199999977 49.9999999999999929 S
atom -0.7895318299999970 21.3925855300000016 51.5689816699999923 Mo
atom 0.7872952700000009 22.3027855600000002 53.1379633399999989 S
atom 0.7872952700000009 22.3027855600000002 49.9999999999999929 S
atom -2.3665102999999976 24.1236388700000006 51.5689816699999923 Mo
atom -0.7896831999999996 25.0338388999999992 53.1379633399999989 S
atom -0.7896831999999996 25.0338388999999992 49.9999999999999929 S
atom -3.9434887699999996 26.8546922100000032 51.5689816699999923 Mo
atom -2.3666616699999983 27.7648922400000053 53.1379633399999989 S
atom -2.3666616699999983 27.7648922400000053 49.9999999999999929 S
atom -2.3667884499999974 29.5855591400000009 51.5689816699999923 Mo
atom 16.5568018200000004 0.4541724300000000 53.1379633399999989 S
atom 16.5568018200000004 0.4541724300000000 49.9999999999999929 S
atom 13.4029962500000011 2.2750257400000007 51.5689816699999923 Mo
atom 14.9798233500000002 3.1852257700000002 53.1379633399999989 S
atom 14.9798233500000002 3.1852257700000002 49.9999999999999929 S
atom 11.8260177799999990 5.0060790800000001 51.5689816699999923 Mo
atom 13.4028448800000000 5.9162791100000005 53.1379633399999989 S
atom 13.4028448800000000 5.9162791100000005 49.9999999999999929 S
atom 10.2490393100000023 7.7371324199999991 51.5689816699999923 Mo
atom 11.8258664100000050 8.6473324500000004 53.1379633399999989 S
atom 11.8258664100000050 8.6473324500000004 49.9999999999999929 S
atom 8.6720608400000021 10.4681857600000008 51.5689816699999923 Mo
atom 10.2488879400000013 11.3783857899999994 53.1379633399999989 S
atom 10.2488879400000013 11.3783857899999994 49.9999999999999929 S
atom 7.0950823700000027 13.1992391000000016 51.5689816699999923 Mo
atom 8.6719094700000010 14.1094391300000002 53.1379633399999989 S
atom 8.6719094700000010 14.1094391300000002 49.9999999999999929 S
atom 5.5181039000000025 15.9302924399999988 51.5689816699999923 Mo
atom 7.0949310000000025 16.8404924699999974 53.1379633399999989 S
atom 7.0949310000000025 16.8404924699999974 49.9999999999999929 S
atom 3.9411254300000023 18.6613457800000013 51.5689816699999923 Mo
atom 5.5179525300000041 19.5715458100000035 53.1379633399999989 S
atom 5.5179525300000041 19.5715458100000035 49.9999999999999929 S
atom 2.3641469600000038 21.3923991200000003 51.5689816699999923 Mo
atom 3.9409740600000016 22.3025991499999989 53.1379633399999989 S
atom 3.9409740600000016 22.3025991499999989 49.9999999999999929 S
atom 0.7871684900000013 24.1234524600000064 51.5689816699999923 Mo
atom 2.3639955899999991 25.0336524900000050 53.1379633399999989 S
atom 2.3639955899999991 25.0336524900000050 49.9999999999999929 S
atom -0.7898099799999990 26.8545058000000019 51.5689816699999923 Mo
atom 0.7870171200000007 27.7647058300000005 53.1379633399999989 S
atom 0.7870171200000007 27.7647058300000005 49.9999999999999929 S
atom 0.7868903400000015 29.5853727299999996 51.5689816699999923 Mo
atom 19.7104806100000047 0.4539860200000000 53.1379633399999989 S
atom 19.7104806100000047 0.4539860200000000 49.9999999999999929 S
atom 16.5566750400000018 2.2748393299999998 51.5689816699999923 Mo
atom 18.1335021400000045 3.1850393600000002 53.1379633399999989 S
atom 18.1335021400000045 3.1850393600000002 49.9999999999999929 S
atom 14.9796965699999998 5.0058926700000006 51.5689816699999923 Mo
atom 16.5565236700000042 5.9160927000000001 53.1379633399999989 S
atom 16.5565236700000042 5.9160927000000001 49.9999999999999929 S
atom 13.4027181000000013 7.7369460099999996 51.5689816699999923 Mo
atom 14.9795452000000058 8.6471460399999991 53.1379633399999989 S
atom 14.9795452000000058 8.6471460399999991 49.9999999999999929 S
atom 11.8257396300000011 10.4679993499999995 51.5689816699999923 Mo
atom 13.4025667300000055 11.3781993800000016 53.1379633399999989 S
atom 13.4025667300000055 11.3781993800000016 49.9999999999999929 S
atom 10.2487611600000008 13.1990526900000020 51.5689816699999923 Mo
atom 11.8255882600000053 14.1092527200000006 53.1379633399999989 S
atom 11.8255882600000053 14.1092527200000006 49.9999999999999929 S
atom 8.6717826900000023 15.9301060299999993 51.5689816699999923 Mo
atom 10.2486097900000068 16.8403060599999961 53.1379633399999989 S
atom 10.2486097900000068 16.8403060599999961 49.9999999999999929 S
atom 7.0948042200000012 18.6611593700000000 51.5689816699999923 Mo
atom 8.6716313200000066 19.5713593999999986 53.1379633399999989 S
atom 8.6716313200000066 19.5713593999999986 49.9999999999999929 S
atom 5.5178257500000027 21.3922127100000026 51.5689816699999923 Mo
atom 7.0946528500000055 22.3024127399999976 53.1379633399999989 S
atom 7.0946528500000055 22.3024127399999976 49.9999999999999929 S
atom 3.9408472800000021 24.1232660500000051 51.5689816699999923 Mo
atom 5.5176743800000052 25.0334660800000002 53.1379633399999989 S
atom 5.5176743800000052 25.0334660800000002 49.9999999999999929 S
atom 2.3638688100000000 26.8543193900000006 51.5689816699999923 Mo
atom 3.9406959100000032 27.7645194200000027 53.1379633399999989 S
atom 3.9406959100000032 27.7645194200000027 49.9999999999999929 S
atom 3.9405691300000023 29.5851863199999983 51.5689816699999923 Mo
atom 22.8641594000000019 0.4537996100000000 53.1379633399999989 S
atom 22.8641594000000019 0.4537996100000000 49.9999999999999929 S
atom 19.7103538300000025 2.2746529200000007 51.5689816699999923 Mo
atom 21.2871809300000017 3.1848529500000002 53.1379633399999989 S
atom 21.2871809300000017 3.1848529500000002 49.9999999999999929 S
atom 18.1333753600000023 5.0057062600000002 51.5689816699999923 Mo
atom 19.7102024600000014 5.9159062900000006 53.1379633399999989 S
atom 19.7102024600000014 5.9159062900000006 49.9999999999999929 S
atom 16.5563968900000020 7.7367595999999974 51.5689816699999923 Mo
atom 18.1332239900000047 8.6469596299999978 53.1379633399999989 S
atom 18.1332239900000047 8.6469596299999978 49.9999999999999929 S
atom 14.9794184200000018 10.4678129400000000 51.5689816699999923 Mo
atom 16.5562455200000045 11.3780129699999986 53.1379633399999989 S
atom 16.5562455200000045 11.3780129699999986 49.9999999999999929 S
atom 13.4024399500000015 13.1988662800000007 51.5689816699999923 Mo
atom 14.9792670500000007 14.1090663100000011 53.1379633399999989 S
atom 14.9792670500000007 14.1090663100000011 49.9999999999999929 S
atom 11.8254614800000031 15.9299196199999979 51.5689816699999923 Mo
atom 13.4022885800000040 16.8401196499999983 53.1379633399999989 S
atom 13.4022885800000040 16.8401196499999983 49.9999999999999929 S
atom 10.2484830100000011 18.6609729599999952 51.5689816699999923 Mo
atom 11.8253101100000038 19.5711729899999973 53.1379633399999989 S
atom 11.8253101100000038 19.5711729899999973 49.9999999999999929 S
atom 8.6715045400000008 21.3920263000000013 51.5689816699999923 Mo
atom 10.2483316400000035 22.3022263299999999 53.1379633399999989 S
atom 10.2483316400000035 22.3022263299999999 49.9999999999999929 S
atom 7.0945260700000015 24.1230796400000003 51.5689816699999923 Mo
atom 8.6713531700000033 25.0332796699999989 53.1379633399999989 S
atom 8.6713531700000033 25.0332796699999989 49.9999999999999929 S
atom 5.5175476000000003 26.8541329800000028 51.5689816699999923 Mo
atom 7.0943747000000004 27.7643330100000050 53.1379633399999989 S
atom 7.0943747000000004 27.7643330100000050 49.9999999999999929 S
atom 7.0942479200000026 29.5849999100000005 51.5689816699999923 Mo
atom 26.0178381900000026 0.4536132000000000 53.1379633399999989 S
atom 26.0178381900000026 0.4536132000000000 49.9999999999999929 S
atom 22.8640326200000032 2.2744665099999999 51.5689816699999923 Mo
atom 24.4408597200000024 3.1846665400000003 53.1379633399999989 S
atom 24.4408597200000024 3.1846665400000003 49.9999999999999929 S
atom 21.2870541500000030 5.0055198499999998 51.5689816699999923 Mo
atom 22.8638812500000022 5.9157198800000002 53.1379633399999989 S
atom 22.8638812500000022 5.9157198800000002 49.9999999999999929 S
atom 19.7100756800000028 7.7365731899999979 51.5689816699999923 Mo
atom 21.2869027800000055 8.6467732199999983 53.1379633399999989 S
atom 21.2869027800000055 8.6467732199999983 49.9999999999999929 S
atom 18.1330972100000025 10.4676265300000004 51.5689816699999923 Mo
atom 19.7099243100000052 11.3778265599999990 53.1379633399999989 S
atom 19.7099243100000052 11.3778265599999990 49.9999999999999929 S
atom 16.5561187400000023 13.1986798700000012 51.5689816699999923 Mo
atom 18.1329458400000050 14.1088798999999998 53.1379633399999989 S
atom 18.1329458400000050 14.1088798999999998 49.9999999999999929 S
atom 14.9791402700000038 15.9297332099999984 51.5689816699999923 Mo
atom 16.5559673700000012 16.8399332399999970 53.1379633399999989 S
atom 16.5559673700000012 16.8399332399999970 49.9999999999999929 S
atom 13.4021618000000036 18.6607865500000010 51.5689816699999923 Mo
atom 14.9789889000000027 19.5709865800000031 53.1379633399999989 S
atom 14.9789889000000027 19.5709865800000031 49.9999999999999929 S
atom 11.8251833300000015 21.3918398900000000 51.5689816699999923 Mo
atom 13.4020104300000042 22.3020399199999986 53.1379633399999989 S
atom 13.4020104300000042 22.3020399199999986 49.9999999999999929 S
atom 10.2482048599999995 24.1228932300000061 51.5689816699999923 Mo
atom 11.8250319600000040 25.0330932600000011 53.1379633399999989 S
atom 11.8250319600000040 25.0330932600000011 49.9999999999999929 S
atom 8.6712263900000011 26.8539465700000015 51.5689816699999923 Mo
atom 10.2480534900000038 27.7641466000000001 53.1379633399999989 S
atom 10.2480534900000038 27.7641466000000001 49.9999999999999929 S
atom 10.2479267100000033 29.5848134999999992 51.5689816699999923 Mo
atom 29.1715169800000034 0.4534267900000000 53.1379633399999989 S
atom 29.1715169800000034 0.4534267900000000 49.9999999999999929 S
atom 26.0177114100000040 2.2742801000000004 51.5689816699999923 Mo
atom 27.5945385100000031 3.1844801300000003 53.1379633399999989 S
atom 27.5945385100000031 3.1844801300000003 49.9999999999999929 S
atom 24.4407329400000037 5.0053334400000002 51.5689816699999923 Mo
atom 26.0175600400000029 5.9155334700000006 53.1379633399999989 S
atom 26.0175600400000029 5.9155334700000006 49.9999999999999929 S
atom 22.8637544700000035 7.7363867799999992 51.5689816699999923 Mo
atom 24.4405815700000026 8.6465868100000005 53.1379633399999989 S
atom 24.4405815700000026 8.6465868100000005 49.9999999999999929 S
atom 21.2867760000000033 10.4674401200000009 51.5689816699999923 Mo
atom 22.8636031000000060 11.3776401499999995 53.1379633399999989 S
atom 22.8636031000000060 11.3776401499999995 49.9999999999999929 S
atom 19.7097975300000030 13.1984934600000017 51.5689816699999923 Mo
atom 21.2866246300000057 14.1086934900000003 53.1379633399999989 S
atom 21.2866246300000057 14.1086934900000003 49.9999999999999929 S
atom 18.1328190600000063 15.9295468000000024 51.5689816699999923 Mo
atom 19.7096461600000055 16.8397468299999993 53.1379633399999989 S
atom 19.7096461600000055 16.8397468299999993 49.9999999999999929 S
atom 16.5558405900000025 18.6606001399999997 51.5689816699999923 Mo
atom 18.1326676900000052 19.5708001699999983 53.1379633399999989 S
atom 18.1326676900000052 19.5708001699999983 49.9999999999999929 S
atom 14.9788621200000005 21.3916534800000022 51.5689816699999923 Mo
atom 16.5556892200000014 22.3018535100000008 53.1379633399999989 S
atom 16.5556892200000014 22.3018535100000008 49.9999999999999929 S
atom 13.4018836500000020 24.1227068200000012 51.5689816699999923 Mo
atom 14.9787107500000047 25.0329068499999998 53.1379633399999989 S
atom 14.9787107500000047 25.0329068499999998 49.9999999999999929 S
atom 11.8249051800000018 26.8537601600000038 51.5689816699999923 Mo
atom 13.4017322800000009 27.7639601900000059 53.1379633399999989 S
atom 13.4017322800000009 27.7639601900000059 49.9999999999999929 S
atom 13.4016055000000041 29.5846270900000015 51.5689816699999923 Mo
atom 32.3251957700000006 0.4532403800000000 53.1379633399999989 S
atom 32.3251957700000006 0.4532403800000000 49.9999999999999929 S
atom 29.1713902000000047 2.2740936899999999 51.5689816699999923 Mo
atom 30.7482173000000039 3.1842937200000003 53.1379633399999989 S
atom 30.7482173000000039 3.1842937200000003 49.9999999999999929 S
atom 27.5944117300000045 5.0051470299999998 51.5689816699999923 Mo
atom 29.1712388300000036 5.9153470600000011 53.1379633399999989 S
atom 29.1712388300000036 5.9153470600000011 49.9999999999999929 S
atom 26.0174332600000042 7.7362003700000015 51.5689816699999923 Mo
atom 27.5942603600000034 8.6464003999999992 53.1379633399999989 S
atom 27.5942603600000034 8.6464003999999992 49.9999999999999929 S
atom 24.4404547900000040 10.4672537099999996 51.5689816699999923 Mo
atom 26.0172818900000031 11.3774537400000000 53.1379633399999989 S
atom 26.0172818900000031 11.3774537400000000 49.9999999999999929 S
atom 22.8634763200000037 13.1983070500000004 51.5689816699999923 Mo
atom 24.4403034200000064 14.1085070800000008 53.1379633399999989 S
atom 24.4403034200000064 14.1085070800000008 49.9999999999999929 S
atom 21.2864978500000035 15.9293603899999994 51.5689816699999923 Mo
atom 22.8633249500000062 16.8395604199999980 53.1379633399999989 S
atom 22.8633249500000062 16.8395604199999980 49.9999999999999929 S
atom 19.7095193800000068 18.6604137299999948 51.5689816699999923 Mo
atom 21.2863464800000060 19.5706137599999970 53.1379633399999989 S
atom 21.2863464800000060 19.5706137599999970 49.9999999999999929 S
atom 18.1325409100000066 21.3914670700000009 51.5689816699999923 Mo
atom 19.7093680100000057 22.3016670999999995 53.1379633399999989 S
atom 19.7093680100000057 22.3016670999999995 49.9999999999999929 S
atom 16.5555624400000099 24.1225204100000035 51.5689816699999923 Mo
atom 18.1323895400000019 25.0327204400000021 53.1379633399999989 S
atom 18.1323895400000019 25.0327204400000021 49.9999999999999929 S
atom 14.9785839700000025 26.8535737500000025 51.5689816699999923 Mo
atom 16.5554110700000017 27.7637737800000046 53.1379633399999989 S
atom 16.5554110700000017 27.7637737800000046 49.9999999999999929 S
