#=======================================================
# FHI-aims file: geometry_mos2.in
# Created using the Atomic Simulation Environment (ASE)
# Mon Jan 24 10:36:28 2022
#=======================================================
lattice_vector 18.9220727399999973 -0.0011184600000000 0.0000000000000000 
lattice_vector -9.4618708199999997 16.3863200400000011 0.0000000000000000 
lattice_vector 0.0000000000000000 0.0000000000000000 103.1379633399999989 
atom 8.6717826900000006 15.9301060300000010 51.5689816699999923 Mo
atom 0.7884078700000000 0.4551044800000000 53.1379633399999989 S
atom 0.7884078700000000 0.4551044800000000 49.9999999999999929 S
atom 16.5566750400000018 2.2748393299999998 51.5689816699999923 Mo
atom -0.7885705999999997 3.1861578200000000 53.1379633399999989 S
atom -0.7885705999999997 3.1861578200000000 49.9999999999999929 S
atom 14.9796965700000015 5.0058926699999997 51.5689816699999923 Mo
atom -2.3655490699999997 5.9172111599999999 53.1379633399999989 S
atom -2.3655490699999997 5.9172111599999999 49.9999999999999929 S
atom 13.4027181000000013 7.7369460100000005 51.5689816699999923 Mo
atom -3.9425275399999995 8.6482644999999998 53.1379633399999989 S
atom -3.9425275399999995 8.6482644999999998 49.9999999999999929 S
atom 11.8257396300000011 10.4679993500000013 51.5689816699999923 Mo
atom -5.5195060099999989 11.3793178400000006 53.1379633399999989 S
atom -5.5195060099999989 11.3793178400000006 49.9999999999999929 S
atom 10.2487611600000008 13.1990526900000020 51.5689816699999923 Mo
atom -7.0964844799999991 14.1103711800000013 53.1379633399999989 S
atom -7.0964844799999991 14.1103711800000013 49.9999999999999929 S
atom -7.0966112600000013 15.9310380800000022 51.5689816699999923 Mo
atom 3.9420866599999997 0.4549180700000000 53.1379633399999989 S
atom 3.9420866599999997 0.4549180700000000 49.9999999999999929 S
atom 0.7882810899999997 2.2757713800000001 51.5689816699999923 Mo
atom 2.3651081899999999 3.1859714100000001 53.1379633399999989 S
atom 2.3651081899999999 3.1859714100000001 49.9999999999999929 S
atom -0.7886973800000004 5.0068247200000000 51.5689816699999923 Mo
atom 0.7881297199999994 5.9170247500000013 53.1379633399999989 S
atom 0.7881297199999994 5.9170247500000013 49.9999999999999929 S
atom -2.3656758500000006 7.7378780600000017 51.5689816699999923 Mo
atom -0.7888487500000003 8.6480780900000020 53.1379633399999989 S
atom -0.7888487500000003 8.6480780900000020 49.9999999999999929 S
atom -3.9426543200000008 10.4689314000000007 51.5689816699999923 Mo
atom -2.3658272199999999 11.3791314299999993 53.1379633399999989 S
atom -2.3658272199999999 11.3791314299999993 49.9999999999999929 S
atom -5.5196327899999993 13.1999847399999997 51.5689816699999923 Mo
atom -3.9428056899999993 14.1101847700000000 53.1379633399999989 S
atom -3.9428056899999993 14.1101847700000000 49.9999999999999929 S
atom -3.9429324700000006 15.9308516700000009 51.5689816699999923 Mo
atom 7.0957654499999991 0.4547316600000000 53.1379633399999989 S
atom 7.0957654499999991 0.4547316600000000 49.9999999999999929 S
atom 3.9419598799999989 2.2755849699999997 51.5689816699999923 Mo
atom 5.5187869799999989 3.1857850000000005 53.1379633399999989 S
atom 5.5187869799999989 3.1857850000000005 49.9999999999999929 S
atom 2.3649814099999991 5.0066383099999996 51.5689816699999923 Mo
atom 3.9418085099999987 5.9168383400000000 53.1379633399999989 S
atom 3.9418085099999987 5.9168383400000000 49.9999999999999929 S
atom 0.7880029399999994 7.7376916499999995 51.5689816699999923 Mo
atom 2.3648300399999989 8.6478916800000007 53.1379633399999989 S
atom 2.3648300399999989 8.6478916800000007 49.9999999999999929 S
atom -0.7889755300000012 10.4687449900000011 51.5689816699999923 Mo
atom 0.7878515699999989 11.3789450200000015 53.1379633399999989 S
atom 0.7878515699999989 11.3789450200000015 49.9999999999999929 S
atom -2.3659539999999999 13.1997983300000001 51.5689816699999923 Mo
atom -0.7891268999999995 14.1099983599999987 53.1379633399999989 S
atom -0.7891268999999995 14.1099983599999987 49.9999999999999929 S
atom -0.7892536800000016 15.9306652600000014 51.5689816699999923 Mo
atom 10.2494442399999990 0.4545452500000000 53.1379633399999989 S
atom 10.2494442399999990 0.4545452500000000 49.9999999999999929 S
atom 7.0956386699999987 2.2753985600000002 51.5689816699999923 Mo
atom 8.6724657699999987 3.1855985900000006 53.1379633399999989 S
atom 8.6724657699999987 3.1855985900000006 49.9999999999999929 S
atom 5.5186601999999985 5.0064519000000001 51.5689816699999923 Mo
atom 7.0954872999999994 5.9166519300000004 53.1379633399999989 S
atom 7.0954872999999994 5.9166519300000004 49.9999999999999929 S
atom 3.9416817299999987 7.7375052400000000 51.5689816699999923 Mo
atom 5.5185088299999991 8.6477052700000012 53.1379633399999989 S
atom 5.5185088299999991 8.6477052700000012 49.9999999999999929 S
atom 2.3647032599999975 10.4685585800000034 51.5689816699999923 Mo
atom 3.9415303599999989 11.3787586100000020 53.1379633399999989 S
atom 3.9415303599999989 11.3787586100000020 49.9999999999999929 S
atom 0.7877247900000007 13.1996119200000006 51.5689816699999923 Mo
atom 2.3645518899999991 14.1098119500000010 53.1379633399999989 S
atom 2.3645518899999991 14.1098119500000010 49.9999999999999929 S
atom 2.3644251099999973 15.9304788500000019 51.5689816699999923 Mo
atom 13.4031230299999979 0.4543588400000000 53.1379633399999989 S
atom 13.4031230299999979 0.4543588400000000 49.9999999999999929 S
atom 10.2493174599999968 2.2752121499999998 51.5689816699999923 Mo
atom 11.8261445599999977 3.1854121800000006 53.1379633399999989 S
atom 11.8261445599999977 3.1854121800000006 49.9999999999999929 S
atom 8.6723389899999965 5.0062654899999997 51.5689816699999923 Mo
atom 10.2491660899999975 5.9164655200000000 53.1379633399999989 S
atom 10.2491660899999975 5.9164655200000000 49.9999999999999929 S
atom 7.0953605199999981 7.7373188300000004 51.5689816699999923 Mo
atom 8.6721876199999972 8.6475188599999999 53.1379633399999989 S
atom 8.6721876199999972 8.6475188599999999 49.9999999999999929 S
atom 5.5183820499999996 10.4683721700000003 51.5689816699999923 Mo
atom 7.0952091499999987 11.3785722000000007 53.1379633399999989 S
atom 7.0952091499999987 11.3785722000000007 49.9999999999999929 S
atom 3.9414035799999985 13.1994255100000029 51.5689816699999923 Mo
atom 5.5182306799999985 14.1096255400000015 53.1379633399999989 S
atom 5.5182306799999985 14.1096255400000015 49.9999999999999929 S
atom 5.5181038999999963 15.9302924400000023 51.5689816699999923 Mo
atom 16.5568018199999969 0.4541724300000000 53.1379633399999989 S
atom 16.5568018199999969 0.4541724300000000 49.9999999999999929 S
atom 13.4029962499999957 2.2750257400000002 51.5689816699999923 Mo
atom 14.9798233499999967 3.1852257700000002 53.1379633399999989 S
atom 14.9798233499999967 3.1852257700000002 49.9999999999999929 S
atom 11.8260177799999973 5.0060790800000001 51.5689816699999923 Mo
atom 13.4028448799999964 5.9162791100000005 53.1379633399999989 S
atom 13.4028448799999964 5.9162791100000005 49.9999999999999929 S
atom 10.2490393099999952 7.7371324200000009 51.5689816699999923 Mo
atom 11.8258664099999962 8.6473324500000022 53.1379633399999989 S
atom 11.8258664099999962 8.6473324500000022 49.9999999999999929 S
atom 8.6720608399999968 10.4681857600000008 51.5689816699999923 Mo
atom 10.2488879399999977 11.3783857899999994 53.1379633399999989 S
atom 10.2488879399999977 11.3783857899999994 49.9999999999999929 S
atom 7.0950823699999965 13.1992390999999998 51.5689816699999923 Mo
atom 8.6719094699999975 14.1094391300000002 53.1379633399999989 S
atom 8.6719094699999975 14.1094391300000002 49.9999999999999929 S
