# 
# This is the geometry file that corresponds to the current relaxation step.
# If you do not want this file to be written, set the "write_restart_geometry" flag to .false.
#  aims_uuid : 17522856-F267-4AAF-A194-103F749D09E3                                
# 
  set_vacuum_level        50.000000
lattice_vector      3.15738197     -0.00026263     -0.00000000
lattice_vector     -1.57891421      2.73423538      0.00000000
lattice_vector      0.00000000     -0.00000000    100.00028125
atom      -0.78931845     -0.45562573     -0.00000004 Mo
atom       0.78931337      0.45562205      1.55399413 S
atom       0.78931336      0.45562205     -1.55399408 S
# 
# What follows is the current estimated Hessian matrix constructed by the BFGS algorithm.
# This is NOT the true Hessian matrix of the system.
# If you do not want this information here, switch it off using the "hessian_to_restart_geometry" keyword.
# 
trust_radius             0.2000000030
hessian_file
