# 
# This is the geometry file that corresponds to the current relaxation step.
# If you do not want this file to be written, set the "write_restart_geometry" flag to .false.
#  aims_uuid : 20F4F4BE-6D0D-4253-A608-AC5056BB8E3B                                
# 
  set_vacuum_level         0.002315
lattice_vector     15.72847685      0.00000000      0.00000000
lattice_vector     -7.86461685     13.62035640      0.00000000
lattice_vector      0.00000000      0.00000000    103.13570646
atom      -0.00002494      0.90732476     51.57008091 W
atom       1.57280644      1.81536512     53.13787485 S
atom       1.57281088      1.81533702     50.00226534 S
atom      -1.57294848      3.63142216     51.57004654 W
atom      -0.00010350      4.53939393     53.13787249 S
atom      -0.00011484      4.53944913     50.00226706 S
atom      -3.14586665      6.35550692     51.57011672 W
atom      -1.57302157      7.26345381     53.13794699 S
atom      -1.57303664      7.26351982     50.00231747 S
atom      -4.71877253      9.07955498     51.57016247 W
atom      -3.14594689      9.98756421     53.13798188 S
atom      -3.14594516      9.98756027     50.00235583 S
atom      -6.29170734     11.80362242     51.57013102 W
atom      -4.71887608     12.71166791     53.13794579 S
atom      -4.71887552     12.71160937     50.00233629 S
atom       3.14567950      0.90736317     51.57010035 W
atom       4.71851168      1.81536128     53.13788746 S
atom       4.71850978      1.81532109     50.00224461 S
atom       1.57276295      3.63143907     51.57004259 W
atom       3.14559653      4.53939469     53.13786610 S
atom       3.14558671      4.53943298     50.00223912 S
atom      -0.00016755      6.35551129     51.57010790 W
atom       1.57268005      7.26344303     53.13793254 S
atom       1.57265589      7.26351741     50.00229593 S
atom      -1.57309338      9.07956151     51.57017773 W
atom      -0.00024871      9.98755533     53.13798202 S
atom      -0.00026026      9.98755122     50.00234926 S
atom      -3.14601661     11.80364340     51.57014790 W
atom      -1.57317421     12.71166053     53.13794600 S
atom      -1.57318051     12.71160130     50.00233942 S
atom       6.29136644      0.90735926     51.57009986 W
atom       7.86420712      1.81534681     53.13787760 S
atom       7.86419337      1.81531568     50.00224617 S
atom       4.71845213      3.63141421     51.57002692 W
atom       6.29127747      4.53939733     53.13785273 S
atom       6.29127719      4.53943247     50.00223446 S
atom       3.14553316      6.35549049     51.57007616 W
atom       4.71835519      7.26346288     53.13790287 S
atom       4.71834784      7.26352044     50.00227834 S
atom       1.57260212      9.07954378     51.57015362 W
atom       3.14543990      9.98755155     53.13794904 S
atom       3.14540737      9.98755706     50.00233183 S
atom      -0.00032081     11.80362218     51.57014385 W
atom       1.57251158     12.71166003     53.13792942 S
atom       1.57249916     12.71159570     50.00232968 S
atom       9.43707816      0.90735818     51.57008599 W
atom      11.00990140      1.81535254     53.13787944 S
atom      11.00989866      1.81533349     50.00224207 S
atom       7.86413100      3.63140057     51.57002741 W
atom       9.43696170      4.53938209     53.13787187 S
atom       9.43696381      4.53943863     50.00225183 S
atom       6.29120157      6.35548640     51.57006785 W
atom       7.86403781      7.26345736     53.13790650 S
atom       7.86405569      7.26351393     50.00229773 S
atom       4.71829345      9.07957083     51.57012287 W
atom       6.29112562      9.98755040     53.13794978 S
atom       6.29113113      9.98756079     50.00232057 S
atom       3.14539016     11.80363958     51.57013353 W
atom       4.71820910     12.71165749     53.13793587 S
atom       4.71820071     12.71160379     50.00230346 S
atom      12.58275960      0.90734323     51.57008499 W
atom      14.15559486      1.81534354     53.13786651 S
atom      14.15559979      1.81533587     50.00225262 S
atom      11.00982171      3.63141878     51.57004314 W
atom      12.58266092      4.53937587     53.13786815 S
atom      12.58267114      4.53944740     50.00226732 S
atom       9.43690694      6.35548725     51.57010587 W
atom      11.00973200      7.26344686     53.13793330 S
atom      11.00975136      7.26351474     50.00231608 S
atom       7.86399337      9.07957115     51.57013556 W
atom       9.43681884      9.98753884     53.13795850 S
atom       9.43684642      9.98755281     50.00233706 S
atom       6.29106120     11.80363993     51.57012732 W
atom       7.86390145     12.71164397     53.13793531 S
atom       7.86391853     12.71158879     50.00232036 S
# 
# What follows is the current estimated Hessian matrix constructed by the BFGS algorithm.
# This is NOT the true Hessian matrix of the system.
# If you do not want this information here, switch it off using the "hessian_to_restart_geometry" keyword.
# 
trust_radius             0.0003443488
hessian_file
