# 
# This is the geometry file that corresponds to the current relaxation step.
# If you do not want this file to be written, set the "write_restart_geometry" flag to .false.
#  aims_uuid : 8F533096-1ECF-421E-A17F-7CB6D1CBF526                                
# 
  set_vacuum_level        52.912182
lattice_vector     16.29568820      0.00000000      0.00000000
lattice_vector     -8.14028310     14.11790945      0.00000000
lattice_vector      0.00000000      0.00000000    100.31494303
atom      -0.01121595      0.93009300      2.61424841 W
atom       1.63415717      1.90937071      4.27702511 Se
atom       1.60980487      1.80912310      0.87411486 Se
atom      -1.61573574      3.78224572      2.58623067 W
atom       0.07428491      4.74595654      4.22140868 Se
atom      -0.00099925      4.71107716      0.84827166 Se
atom      -3.26811785      6.59523974      2.61994209 W
atom      -1.58264524      7.52269313      4.28267524 Se
atom      -1.67776936      7.55316128      0.89003100 Se
atom      -4.89783102      9.40976311      2.64296133 W
atom      -3.25279089     10.35052974      4.32475551 Se
atom      -3.28147302     10.35182389      0.92646001 Se
atom      -6.52663339     12.22898295      2.64084916 W
atom      -4.88814512     13.18184822      4.32143951 Se
atom      -4.90044684     13.14497456      0.92054985 Se
atom       3.25161207      0.92340922      2.59468765 W
atom       4.87074163      1.85711209      4.30984582 Se
atom       4.89467861      1.84638391      0.89537430 Se
atom       1.65551151      3.73377040      2.50296029 W
atom       3.27505120      4.84244669      4.10264315 Se
atom       3.26773274      4.57627025      0.78724818 Se
atom       0.02006235      6.62901666      2.51311567 W
atom       1.81099025      7.51140426      4.13216245 Se
atom       1.58796896      7.57041740      0.84131568 Se
atom      -1.63225957      9.41999431      2.60649439 W
atom      -0.02670117     10.37051170      4.32691225 Se
atom      -0.00205949     10.36623448      0.90823198 Se
atom      -3.26254167     12.23110375      2.62505506 W
atom      -1.63527345     13.17531133      4.32670083 Se
atom      -1.63124338     13.17080844      0.92121411 Se
atom       6.51393115      0.93036779      2.62194324 W
atom       8.13192505      1.88204882      4.33286140 Se
atom       8.13780528      1.90451608      0.93626452 Se
atom       4.86989924      3.71913149      2.59888044 W
atom       6.47171488      4.67748539      4.36546566 Se
atom       6.47725615      4.76513584      0.97775863 Se
atom       4.98439995      7.60389674      4.57836149 Se
atom       4.60485392      7.41561884      1.29076670 Se
atom       1.60792861      9.45061499      2.63890165 W
atom       3.22667385     10.37338968      4.38142957 Se
atom       3.28042338     10.33533486      0.97381960 Se
atom      -0.00373767     12.24518491      2.62541488 W
atom       1.61491385     13.19229195      4.33619360 Se
atom       1.63849774     13.18327332      0.93720926 Se
atom       9.76695134      0.95218416      2.63303152 W
atom      11.40206336      1.89447625      4.33146131 Se
atom      11.39834363      1.89196641      0.93454695 Se
atom       8.12470958      3.77910328      2.65167159 W
atom       9.77394602      4.70292935      4.34736778 Se
atom       9.75414070      4.72120989      0.95062773 Se
atom       6.47315760      6.60780969      2.76206121 W
atom       8.16941240      7.53203731      4.39897279 Se
atom       8.08156228      7.52723143      1.01679442 Se
atom       4.87616688      9.42613372      2.73579201 W
atom       6.52448332     10.38309230      4.40251124 Se
atom       6.49150697     10.32872895      1.00493175 Se
atom       3.25573365     12.24252784      2.65562916 W
atom       4.88470590     13.20291783      4.35121870 Se
atom       4.88826577     13.17244679      0.95234003 Se
atom      13.03203824      0.95299587      2.63315209 W
atom      14.67720269      1.91502075      4.30931001 Se
atom      14.65489605      1.87617602      0.91439810 Se
atom      11.40171060      3.77511175      2.63306234 W
atom      13.06204202      4.71115003      4.31134992 Se
atom      13.01808330      4.71708289      0.91656142 Se
atom       9.77176088      6.59111029      2.66224314 W
atom      11.42288332      7.53043730      4.34434089 Se
atom      11.37340831      7.53385445      0.93960214 Se
atom       8.13549774      9.41396515      2.69925742 W
atom       9.79077319     10.36361058      4.36110127 Se
atom       9.74483683     10.33439433      0.96008192 Se
atom       6.51283947     12.24316746      2.66485753 W
atom       8.15528586     13.19587415      4.34344029 Se
atom       8.13035282     13.14720533      0.93744780 Se
# 
# What follows is the current estimated Hessian matrix constructed by the BFGS algorithm.
# This is NOT the true Hessian matrix of the system.
# If you do not want this information here, switch it off using the "hessian_to_restart_geometry" keyword.
# 
trust_radius             0.0075048688
hessian_file
