#
# temporary structure-file for finite-difference calculation of forces
# displacement   0.0020 of \# atom     6 direction     0
#
lattice_vector   15.90000000    0.00000000    0.00000000
lattice_vector   -7.95000000   13.76980390    0.00000000
lattice_vector    0.00000000    0.00000000  100.00000000
atom    1.58998365    0.91838450    3.07249914  Mo
atom    0.00000767    1.83635824    4.63273288   S
atom    0.00000768    1.83635825    1.51226298   S
atom   -0.00001635    3.67234528    3.07249914  Mo
atom   -1.58999233    4.59031902    4.63273288   S
atom   -1.58999232    4.59031903    1.51226298   S
atom   -1.58801635    6.42630606    3.07249914  Mo
atom   -3.17999233    7.34427980    4.63273288   S
atom   -3.17999232    7.34427981    1.51226298   S
atom   -3.18001635    9.18026684    3.07249914  Mo
atom   -4.76999233   10.09824058    4.63273288   S
atom   -4.76999232   10.09824059    1.51226298   S
atom   -4.77001635   11.93422762    3.07249914  Mo
atom   -6.35999233   12.85220136    4.63273288   S
atom   -6.35999232   12.85220137    1.51226298   S
atom    4.76998365    0.91838450    3.07249914  Mo
atom    3.18000767    1.83635824    4.63273288   S
atom    3.18000768    1.83635825    1.51226298   S
atom    3.17998365    3.67234528    3.07249914  Mo
atom    1.59000767    4.59031902    4.63273288   S
atom    1.59000768    4.59031903    1.51226298   S
atom    1.58998365    6.42630606    3.07249914  Mo
atom    0.00000767    7.34427980    4.63273288   S
atom    0.00000768    7.34427981    1.51226298   S
atom   -0.00001635    9.18026684    3.07249914  Mo
atom   -1.58999233   10.09824058    4.63273288   S
atom   -1.58999232   10.09824059    1.51226298   S
atom   -1.59001635   11.93422762    3.07249914  Mo
atom   -3.17999233   12.85220136    4.63273288   S
atom   -3.17999232   12.85220137    1.51226298   S
atom    7.94998365    0.91838450    3.07249914  Mo
atom    6.36000767    1.83635824    4.63273288   S
atom    6.36000768    1.83635825    1.51226298   S
atom    6.35998365    3.67234528    3.07249914  Mo
atom    4.77000767    4.59031902    4.63273288   S
atom    4.77000768    4.59031903    1.51226298   S
atom    4.76998365    6.42630606    3.07249914  Mo
atom    3.18000767    7.34427980    4.63273288   S
atom    3.18000768    7.34427981    1.51226298   S
atom    3.17998365    9.18026684    3.07249914  Mo
atom    1.59000767   10.09824058    4.63273288   S
atom    1.59000768   10.09824059    1.51226298   S
atom    1.58998365   11.93422762    3.07249914  Mo
atom    0.00000767   12.85220136    4.63273288   S
atom    0.00000768   12.85220137    1.51226298   S
atom   11.12998365    0.91838450    3.07249914  Mo
atom    9.54000767    1.83635824    4.63273288   S
atom    9.54000768    1.83635825    1.51226298   S
atom    9.53998365    3.67234528    3.07249914  Mo
atom    7.95000767    4.59031902    4.63273288   S
atom    7.95000768    4.59031903    1.51226298   S
atom    7.94998365    6.42630606    3.07249914  Mo
atom    6.36000767    7.34427980    4.63273288   S
atom    6.36000768    7.34427981    1.51226298   S
atom    6.35998365    9.18026684    3.07249914  Mo
atom    4.77000767   10.09824058    4.63273288   S
atom    4.77000768   10.09824059    1.51226298   S
atom    4.76998365   11.93422762    3.07249914  Mo
atom    3.18000767   12.85220136    4.63273288   S
atom    3.18000768   12.85220137    1.51226298   S
atom   14.30998365    0.91838450    3.07249914  Mo
atom   12.72000767    1.83635824    4.63273288   S
atom   12.72000768    1.83635825    1.51226298   S
atom   12.71998365    3.67234528    3.07249914  Mo
atom   11.13000767    4.59031902    4.63273288   S
atom   11.13000768    4.59031903    1.51226298   S
atom   11.12998365    6.42630606    3.07249914  Mo
atom    9.54000767    7.34427980    4.63273288   S
atom    9.54000768    7.34427981    1.51226298   S
atom    9.53998365    9.18026684    3.07249914  Mo
atom    7.95000767   10.09824058    4.63273288   S
atom    7.95000768   10.09824059    1.51226298   S
atom    7.94998365   11.93422762    3.07249914  Mo
atom    6.36000767   12.85220136    4.63273288   S
atom    6.36000768   12.85220137    1.51226298   S
