#
# temporary structure-file for finite-difference calculation of forces
# displacement  -0.0020 of \# atom    61 direction     1
#
lattice_vector   15.90000000    0.00000000    0.00000000
lattice_vector   -7.95000000   13.76980390    0.00000000
lattice_vector    0.00000000    0.00000000  100.00000000
atom    1.59279527    0.91999722    3.10248872  Mo
atom    0.00002134    1.84129623    4.66194602   S
atom   -0.00000207    1.83383033    1.54339524   S
atom   -0.00001656    3.67350741    3.09682050  Mo
atom   -1.60797318    4.59367165    4.64665588   S
atom   -1.59081927    4.58162591    1.52899861   S
atom   -1.59656757    6.42205018    3.07978209  Mo
atom   -3.21017174    7.32687172    4.62170824   S
atom   -3.18084844    7.34377473    1.51254835   S
atom   -3.18698975    9.17671255    3.07975478  Mo
atom   -4.77608217   10.08101284    4.64660598   S
atom   -4.77791302   10.10188386    1.52894355   S
atom   -4.76900274   11.93363121    3.09677310  Mo
atom   -6.35569229   12.84971953    4.66190952   S
atom   -6.36218191   12.85346204    1.54337341   S
atom    4.77860968    0.93306071    3.08105005  Mo
atom    3.19600152    1.84555038    4.65134260   S
atom    3.17550153    1.83373920    1.53274614   S
atom    3.19707433    3.67243245    3.08108654  Mo
atom    1.60799907    4.59364463    4.64665209   S
atom    1.59082689    4.58162494    1.52900092   S
atom    1.59654098    6.42203648    3.07980086  Mo
atom    0.00000587    7.34196893    4.63667878   S
atom    0.00002060    7.34023401    1.52236470   S
atom   -0.00001585    9.18025012    3.07905662  Mo
atom   -1.59200660   10.09938319    4.63664676   S
atom   -1.59348108   10.10023817    1.52234891   S
atom   -1.59043814   11.94201457    3.07976209  Mo
atom   -3.16812228   12.86606788    4.64661277   S
atom   -3.18711238   12.85721545    1.52894837   S
atom    7.94996402    0.95240379    3.04172501  Mo
atom    6.40786719    1.91206996    4.60221467   S
atom    6.34349633    1.85385973    1.47999615   S
atom    6.40590048    3.69884246    3.00271616  Mo
atom    4.85959154    4.59388265    4.60224142   S
atom    4.77695013    4.56723426    1.48001426   S
atom    4.79954576    6.40924349    3.04175301  Mo
atom    3.21021689    7.32682623    4.62173786   S
atom    3.18089862    7.34376037    1.51260318   S
atom    3.18697420    9.17670340    3.07981028  Mo
atom    1.59200284   10.09937056    4.63668118   S
atom    1.59352152   10.10023398    1.52238115   S
atom    1.59039871   11.94200680    3.07979883  Mo
atom   -0.00001180   12.88700868    4.62172132   S
atom    0.00001760   12.85316203    1.51256906   S
atom   11.12132766    0.93310500    3.08111941  Mo
atom    9.49209085    1.91210449    4.60225577   S
atom    9.55650289    1.85391117    1.48006249   S
atom    9.49399057    3.69888106    3.00278859  Mo
atom    7.94999008    4.59032663    1.43268489   S
atom    7.94997638    6.37331141    3.00268836  Mo
atom    6.40171697    7.26491810    4.60222919   S
atom    6.38345839    7.34982449    1.48000085   S
atom    6.36844604    9.16542830    3.08108867  Mo
atom    4.77612379   10.08099300    4.64666400   S
atom    4.77794190   10.10187575    1.52900286   S
atom    4.76898091   11.93362804    3.09683152  Mo
atom    3.16811654   12.86608195    4.64666493   S
atom    3.18712361   12.85724137    1.52901506   S
atom   14.30717951    0.92001086    3.10251979  Mo
atom   12.70400723    1.84558806    4.65138550   S
atom   12.72448821    1.83175167    1.53279239   S
atom   12.70289657    3.67246446    3.08110935  Mo
atom   11.04041884    4.59391477    4.60224683   S
atom   11.12302665    4.56722613    1.48005002   S
atom   11.10049106    6.40928900    3.04170957  Mo
atom    9.49833263    7.26496171    4.60218629   S
atom    9.51657399    7.34983071    1.47997782   S
atom    9.53156152    9.16545953    3.08104198  Mo
atom    7.95003687   10.07981217    4.65133950   S
atom    7.95000526   10.10345774    1.53274214   S
atom    7.94998782   11.93098877    3.10248838  Mo
atom    6.35573494   12.84972698    4.66194453   S
atom    6.36217827   12.85346979    1.54340356   S
