#=======================================================
# FHI-aims file: geometry.in
# Created using the Atomic Simulation Environment (ASE)
# Tue Jan 18 17:08:51 2022
#=======================================================
lattice_vector 0.0000000000000000 2.0000000000000000 2.0000000000000000 
lattice_vector 2.0000000000000000 0.0000000000000000 2.0000000000000000 
lattice_vector 2.0000000000000000 2.0000000000000000 0.0000000000000000 
atom 0.0000000000000000 0.0000000000000000 0.0000000000000000 Au
