# 
# This is the geometry file that corresponds to the current relaxation step.
# If you do not want this file to be written, set the "write_restart_geometry" flag to .false.
#  aims_uuid : FF60BB54-A687-49D0-A595-33A9AAB6B375                                
# 
  set_vacuum_level       103.108052
lattice_vector     15.72118630     -0.00130770      0.00000000
lattice_vector     -7.86163315     13.61413775      0.00000000
lattice_vector      0.00000000      0.00000000    103.10805205
atom       7.07348059     13.15542551     51.55847299 Mo
atom       0.78613374      0.45364688     53.11181676 S
atom       0.78671496      0.45332294     50.00355187 S
atom      13.35949020      2.26946382     51.55862209 Mo
atom      -0.78629896      3.17657242     53.11166153 S
atom      -0.78631635      3.17718184     50.00354490 S
atom      11.76475301      4.98858349     51.56712577 Mo
atom      -2.37163850      5.89897222     53.11009966 S
atom      -2.37330867      5.89089742     50.01260874 S
atom      10.18660653      7.69510852     51.53981125 Mo
atom      -3.95229999      8.60987527     53.09990465 S
atom      -3.94183413      8.61586992     50.00288093 S
atom       8.63101541     10.41541203     51.56688577 Mo
atom      -5.51018976     11.33387837     53.11027183 S
atom      -5.51800083     11.33661687     50.01271250 S
atom      -5.50578502     13.16155142     51.55990765 Mo
atom       3.93645204      0.46498556     53.11038590 S
atom       3.93019752      0.47039951     50.01270076 S
atom       0.78922203      2.27064933     51.55847541 Mo
atom       2.35735996      3.17586758     53.12004391 S
atom       2.36215331      3.17871300     50.01328139 S
atom      -0.78648487      4.98908220     51.55957461 Mo
atom       0.79866108      5.89870602     53.11025238 S
atom       0.80028839      5.89057373     50.01260346 S
atom      -2.36696204      7.71143604     51.55607513 Mo
atom      -0.78666797      8.62038939     53.10497524 S
atom      -0.78670137      8.61736399     50.00382089 S
atom      -3.93813898     10.43180927     51.55606221 Mo
atom      -2.36041786     11.34557227     53.10485642 S
atom      -2.36299583     11.34702583     50.00373709 S
atom      -2.35804706     13.16877311     51.55605486 Mo
atom       7.07450973      0.47790121     53.09994365 S
atom       7.07452346      0.46572136     50.00291675 S
atom       3.94082890      2.29194371     51.56701547 Mo
atom       5.55518095      3.24829370     53.10368749 S
atom       5.49555512      3.21745722     49.98813113 S
atom       2.38311199      4.98903911     51.56699186 Mo
atom       4.01900525      5.90854122     53.10376044 S
atom       3.96249192      5.87231169     49.98811202 S
atom       0.79372277      7.71084056     51.55616469 Mo
atom       2.37893453      8.60937690     53.09993714 S
atom       2.36841838      8.61537139     50.00306021 S
atom      -0.78680243     10.43716045     51.55305808 Mo
atom       0.78660118     11.34528348     53.10488629 S
atom       0.78913715     11.34679344     50.00360953 S
atom       0.78363793     13.16829605     51.55606299 Mo
atom      10.21258711      0.46441879     53.11017878 S
atom      10.21883433      0.46981031     50.01262594 S
atom       7.07447196      2.30470664     51.53966759 Mo
atom       8.59357076      3.24789201     53.10367558 S
atom       8.65306130      3.21721290     49.98807731 S
atom       5.56013390      5.02462238     51.52223151 Mo
atom       7.07418530      5.89854336     49.94214676 S
atom       3.96143486      7.69601092     51.53988198 Mo
atom       5.53785866      8.53953611     53.10391857 S
atom       5.54098577      8.60644872     49.98808616 S
atom       2.36422796     10.43154518     51.55605409 Mo
atom       3.93635604     11.33309203     53.11032876 S
atom       3.94417491     11.33588633     50.01268421 S
atom       3.93178792     13.16082007     51.55978646 Mo
atom      13.36291598      0.45260082     53.11185093 S
atom      13.36233526      0.45232108     50.00352379 S
atom      10.20760983      2.29116016     51.56695940 Mo
atom      11.79123188      3.17507890     53.12012849 S
atom      11.78651447      3.17782937     50.01347466 S
atom       8.58850635      5.02441851     51.52229570 Mo
atom      10.12931090      5.90802161     53.10404113 S
atom      10.18572248      5.87184618     49.98806942 S
atom       7.07348976      7.64691063     51.52216942 Mo
atom       8.60972417      8.53909831     53.10365263 S
atom       8.60679497      8.60617359     49.98799669 S
atom       5.51638417     10.41553195     51.56705517 Mo
atom       7.07367448     11.34469508     53.11996365 S
atom       7.07370394     11.33913069     50.01325709 S
# 
# What follows is the current estimated Hessian matrix constructed by the BFGS algorithm.
# This is NOT the true Hessian matrix of the system.
# If you do not want this information here, switch it off using the "hessian_to_restart_geometry" keyword.
# 
