#
lattice_vector      16.238659     -0.000     -0.00
lattice_vector      -8.11989635    14.06215255     -0.00
lattice_vector      0.0000      0.0000     99.93951163
atom_frac 0.03249816 0.06493038 0.02667289 Mo
atom_frac 0.16837918 0.13542820 0.04259869 Se
atom_frac 0.16246682 0.13036499 0.00964150 Se
atom_frac 0.03352002 0.26675978 0.02684605 Mo
atom_frac 0.17383693 0.33691786 0.04271752 Se
atom_frac 0.16055161 0.33027624 0.00953713 Se
atom_frac 0.03250218 0.46756883 0.02667273 Mo
atom_frac 0.16838149 0.53295070 0.04259921 Se
atom_frac 0.16247054 0.53210110 0.00964176 Se
atom_frac 0.03297164 0.66594234 0.02645923 Mo
atom_frac 0.16746559 0.73253068 0.04257719 Se
atom_frac 0.16676111 0.73324024 0.01019472 Se
atom_frac 0.03296794 0.86702500 0.02645953 Mo
atom_frac 0.16746422 0.93492735 0.04257706 Se
atom_frac 0.16675599 0.93351008 0.01019488 Se
atom_frac 0.23447688 0.06895187 0.02626424 Mo
atom_frac 0.36705028 0.13542808 0.04259880 Se
atom_frac 0.36790013 0.13036512 0.00964164 Se
atom_frac 0.22484374 0.26143571 0.02548269 Mo
atom_frac 0.37201827 0.34403306 0.01464516 Se
atom_frac 0.22484716 0.46341146 0.02548312 Mo
atom_frac 0.37201155 0.52798995 0.01464324 Se
atom_frac 0.23448097 0.66552195 0.02626466 Mo
atom_frac 0.36705033 0.73162008 0.04259968 Se
atom_frac 0.36790374 0.73753590 0.00964209 Se
atom_frac 0.23405752 0.86702476 0.02645961 Mo
atom_frac 0.36550326 0.93275245 0.04305409 Se
atom_frac 0.36698004 0.93348808 0.01018018 Se
atom_frac 0.43243210 0.06493051 0.02667305 Mo
atom_frac 0.56549711 0.13327332 0.04313442 Se
atom_frac 0.56800577 0.13291392 0.01066698 Se
atom_frac 0.43659361 0.26143509 0.02548290 Mo
atom_frac 0.56307976 0.33691495 0.04271783 Se
atom_frac 0.56972317 0.33027295 0.00953709 Se
atom_frac 0.55597895 0.52798849 0.01464358 Se
atom_frac 0.43658628 0.67515255 0.02548354 Mo
atom_frac 0.56307838 0.72616081 0.04271823 Se
atom_frac 0.56972473 0.73945415 0.00953816 Se
atom_frac 0.43243285 0.86750179 0.02667364 Mo
atom_frac 0.56549952 0.93223130 0.04313486 Se
atom_frac 0.56800858 0.93509335 0.01066768 Se
atom_frac 0.63384601 0.06692701 0.02707785 Mo
atom_frac 0.76666825 0.13333771 0.04349381 Se
atom_frac 0.76666570 0.13333339 0.01077950 Se
atom_frac 0.63323732 0.26675889 0.02684616 Mo
atom_frac 0.76672715 0.33450235 0.04313390 Se
atom_frac 0.76708165 0.33199128 0.01066690 Se
atom_frac 0.63856244 0.46340462 0.02548320 Mo
atom_frac 0.76456894 0.53294809 0.04259915 Se
atom_frac 0.76962987 0.53209827 0.00964175 Se
atom_frac 0.63856382 0.67515527 0.02548341 Mo
atom_frac 0.76456942 0.73162110 0.04259951 Se
atom_frac 0.76963165 0.73753626 0.00964195 Se
atom_frac 0.63324061 0.86648448 0.02684722 Mo
atom_frac 0.76673048 0.93223135 0.04313474 Se
atom_frac 0.76708276 0.93509338 0.01066762 Se
atom_frac 0.83307911 0.06692728 0.02707777 Mo
atom_frac 0.96777558 0.13327350 0.04313428 Se
atom_frac 0.96490736 0.13291426 0.01066688 Se
atom_frac 0.83307627 0.26615420 0.02707731 Mo
atom_frac 0.96777459 0.33450288 0.04313388 Se
atom_frac 0.96490882 0.33199217 0.01066685 Se
atom_frac 0.83506646 0.46756777 0.02667272 Mo
atom_frac 0.96724784 0.53449484 0.04305336 Se
atom_frac 0.96651039 0.53301998 0.01017969 Se
atom_frac 0.83104068 0.66552085 0.02626458 Mo
atom_frac 0.96506594 0.73253056 0.04257711 Se
atom_frac 0.96648000 0.73323973 0.01019468 Se
atom_frac 0.83506893 0.86750298 0.02667347 Mo
atom_frac 0.96724967 0.93275285 0.04305399 Se
atom_frac 0.96650874 0.93348823 0.01017999 Se
