# 
# This is the geometry file that corresponds to the current relaxation step.
# If you do not want this file to be written, set the "write_restart_geometry" flag to .false.
#  aims_uuid : 33C9D7E1-7EB3-42EA-A4C1-B0558A84DAD7                                
# 
  set_vacuum_level        52.613254
lattice_vector     16.41708800      0.00000000      0.00000000
lattice_vector     -8.21125790     14.21583190      0.00000000
lattice_vector      0.00000000      0.00000000     99.89650741
atom       0.07002285      1.05844224      2.68931735 Mo
atom       1.76091666      2.12737685      4.27661588 Se
atom       1.67579563      1.98227706      0.93701945 Se
atom      -1.50644188      3.92241828      2.70446186 Mo
atom       0.36399447      5.00221133      4.27009752 Se
atom       0.06182228      4.82763594      0.90354859 Se
atom      -3.19951238      6.71898267      2.68921856 Mo
atom      -1.42829807      7.64871038      4.27652387 Se
atom      -1.59634597      7.64749582      0.93698370 Se
atom      -4.87946644      9.55124280      2.69042428 Mo
atom      -3.19720646     10.48791809      4.33203292 Se
atom      -3.25094801     10.50461077      0.99518013 Se
atom      -6.52724578     12.40393416      2.69045756 Mo
atom      -4.87482223     13.39216177      4.33208931 Se
atom      -4.88725333     13.33732444      0.99518333 Se
atom       3.33490822      1.06743342      2.62473338 Mo
atom       4.91468034      2.06461666      4.30787132 Se
atom       5.00455067      1.98497103      0.95533446 Se
atom       1.80241232      3.95871189      2.50812486 Mo
atom       3.37369156      4.82569821      0.77616041 Se
atom       0.17900659      6.76944162      2.50808890 Mo
atom       1.71556540      7.69655742      0.77601765 Se
atom      -1.55970785      9.54168296      2.62468500 Mo
atom       0.09384939     10.41092633      4.30776296 Se
atom       0.06974410     10.52867201      0.95516904 Se
atom      -3.23243949     12.40411121      2.67507789 Mo
atom      -1.60079887     13.34601783      4.36308409 Se
atom      -1.58258212     13.35656642      1.01110492 Se
atom       6.61101560      1.04085728      2.68888133 Mo
atom       8.23341180      1.97981322      4.39577442 Se
atom       8.27966294      1.98095340      1.04283479 Se
atom       4.88395979      3.90794182      2.56931008 Mo
atom       6.47431942      4.80947270      4.32696361 Se
atom       6.61871347      4.79624697      0.98084898 Se
atom       3.22344452      6.65322528      2.45422960 Mo
atom       4.70513942      7.50842744      4.26537833 Se
atom       4.93282157      7.64001275      0.91770728 Se
atom       1.67529615      9.46327393      2.56910765 Mo
atom       3.25112894     10.38942415      4.32696218 Se
atom       3.31203074     10.52131114      0.98069678 Se
atom       0.05461373     12.39169820      2.68883856 Mo
atom       1.67904885     13.32714612      4.39576794 Se
atom       1.70322781     13.36662195      1.04281741 Se
atom       9.90577323      1.03286824      2.73759657 Mo
atom      11.55334301      1.98399471      4.42589978 Se
atom      11.55841020      1.98686317      1.07416008 Se
atom       8.23813864      3.87270342      2.71484486 Mo
atom       9.88012142      4.82479438      4.40714717 Se
atom       9.91255510      4.81036739      1.05968985 Se
atom       6.52831852      6.68127823      2.65565781 Mo
atom       8.17325531      7.62985956      4.36352916 Se
atom       8.23639011      7.64371281      1.03365863 Se
atom       4.89961152      9.50090477      2.65566241 Mo
atom       6.54372221     10.45088924      4.36355414 Se
atom       6.58730583     10.49873160      1.03369189 Se
atom       3.32113544     12.38521722      2.71485375 Mo
atom       4.96677025     13.33099614      4.40718355 Se
atom       4.97055600     13.36631555      1.05975009 Se
atom      13.20160658      1.04332443      2.74779645 Mo
atom      14.88699045      2.02780221      4.39338944 Se
atom      14.82578647      2.00427077      1.05452090 Se
atom      11.56221291      3.88154116      2.74774914 Mo
atom      13.25753388      4.84876346      4.39334038 Se
atom      13.20665404      4.80742045      1.05446909 Se
atom       9.88446487      6.70980824      2.72209152 Mo
atom      11.56508019      7.66339998      4.37532637 Se
atom      11.53081360      7.64460603      1.03196887 Se
atom       8.22314845      9.53970834      2.70646771 Mo
atom       9.88692331     10.50011674      4.36638895 Se
atom       9.87287420     10.49202963      1.02650578 Se
atom       6.60186607     12.39272564      2.72217313 Mo
atom       8.26818652     13.37113431      4.37536811 Se
atom       8.23472534     13.35088934      1.03207632 Se
# 
# What follows is the current estimated Hessian matrix constructed by the BFGS algorithm.
# This is NOT the true Hessian matrix of the system.
# If you do not want this information here, switch it off using the "hessian_to_restart_geometry" keyword.
# 
trust_radius             0.0005815325
hessian_file
