#
# temporary structure-file for finite-difference calculation of forces
# displacement  -0.0020 of \# atom    57 direction     1
#
lattice_vector   15.90000000    0.00000000    0.00000000
lattice_vector   -7.95000000   13.76980390    0.00000000
lattice_vector    0.00000000    0.00000000  100.00000000
atom    1.60337641    0.92774068    3.13747138  Mo
atom    0.00974436    1.84195565    4.69849108   S
atom    0.01196842    1.84327744    1.58194488   S
atom    0.01481579    3.67924750    3.13752053  Mo
atom   -1.60402028    4.59628627    4.68323911   S
atom   -1.58183746    4.57972891    1.56912450   S
atom   -1.60154393    6.42103463    3.11384507  Mo
atom   -3.24021932    7.32128766    4.64693057   S
atom   -3.19823981    7.32629791    1.54498936   S
atom   -3.20686448    9.16477255    3.09946297  Mo
atom   -4.82004659   10.05762453    4.64688101   S
atom   -4.79465619   10.09143143    1.54492408   S
atom   -4.78037282   11.92686259    3.11377083  Mo
atom   -6.36184418   12.83706337    4.68316276   S
atom   -6.36506942   12.86458023    1.56903124   S
atom    4.78356674    0.94113291    3.08866983  Mo
atom    3.22643602    1.87004274    4.67345571   S
atom    3.17681882    1.85494451    1.56310606   S
atom    3.23415559    3.70354524    3.10367089  Mo
atom    1.64249104    4.61362366    4.67349406   S
atom    1.60456460    4.57822792    1.56316297   S
atom    1.61659553    6.42667499    3.08873346  Mo
atom    0.01828351    7.34692709    4.65334895   S
atom   -0.00758968    7.32663988    1.54311566   S
atom   -0.00184851    9.17377468    3.08494366  Mo
atom   -1.59764983   10.09380751    4.64343652   S
atom   -1.61114265   10.08598256    1.53644319   S
atom   -1.59655752   11.93581468    3.08490933  Mo
atom   -3.16858844   12.86663237    4.65328388   S
atom   -3.19906496   12.85436022    1.54305338   S
atom    7.95216821    0.94862951    3.03354418  Mo
atom    6.42000080    1.94884096    4.57687751   S
atom    6.34475930    1.84208340    1.46490000   S
atom    6.42801369    3.72850268    2.95062724  Mo
atom    5.00077125    4.72348703    4.57156372   S
atom    4.77015304    4.59035450    1.44400109   S
atom    4.85275659    6.45711510    2.95064219  Mo
atom    3.30759025    7.33997195    4.57691280   S
atom    3.17745869    7.32815765    1.46493264   S
atom    3.20742484    9.16699016    3.03356955  Mo
atom    1.61806123   10.08396903    4.61633998   S
atom    1.57879976   10.09716394    1.51115205   S
atom    1.59264754   11.93571745    3.07389604  Mo
atom    0.00166099   12.88351740    4.61632395   S
atom   -0.00650799   12.84291931    1.51113027   S
atom   11.12623060    0.92637441    3.09208109  Mo
atom    9.48761011    1.89935660    4.60354765   S
atom    9.56975425    1.84612133    1.48108884   S
atom    9.48982760    3.68757164    3.00363663  Mo
atom    7.98381067    4.60105101    1.39060845   S
atom    7.87935236    6.38567236    2.93403288  Mo
atom    6.38617091    7.36828384    1.39051515   S
atom    6.34815000    9.12935187    3.00349401  Mo
atom    4.79849020   10.02137526    4.60350662   S
atom    4.79334947   10.11917339    1.48100614   S
atom    4.77506573   11.92698599    3.09204351  Mo
atom    3.17137366   12.84719210    4.64696686   S
atom    3.19265563   12.85750729    1.52966846   S
atom   14.31455979    0.92102500    3.13162679  Mo
atom   12.70078738    1.83722469    4.67601391   S
atom   12.73797531    1.83926583    1.55925982   S
atom   12.70521185    3.67139095    3.11420133  Mo
atom   11.02054805    4.58459812    4.62246415   S
atom   11.13244448    4.56620436    1.50477547   S
atom   11.06559735    6.39683643    3.06555262  Mo
atom    9.34880936    7.23397569    4.57696995   S
atom    9.49332380    7.31735865    1.46128107   S
atom    9.48226195    9.13934296    3.06547073  Mo
atom    7.89035197   10.00642077    4.62235958   S
atom    7.93040126   10.11251257    1.50463320   S
atom    7.94178827   11.92197579    3.11409527  Mo
atom    6.35118023   12.83514448    4.67596506   S
atom    6.37149879   12.86636416    1.55920465   S
