# 
# This is the geometry file that corresponds to the current relaxation step.
# If you do not want this file to be written, set the "write_restart_geometry" flag to .false.
#  aims_uuid : A20BCF58-F328-4853-A7E3-7BB4E33F6DD5                                
# 
  set_vacuum_level        99.650342
lattice_vector     15.86579708      0.00000000      0.00000000
lattice_vector     -7.83979262     13.66810464      0.00000000
lattice_vector      0.00000000      0.00000000    100.00000000
atom_frac       0.53352953      0.56678120      0.49650342 Mo
atom_frac       0.66666699      0.63332527      0.51215679 S
atom_frac       0.66666700      0.63332524      0.48085005 S
atom_frac       0.53353021      0.76678187      0.49650342 Mo
atom_frac       0.66666736      0.83332550      0.51215682 S
atom_frac       0.66666735      0.83332551      0.48085002 S
atom_frac       0.53353059      0.96678165      0.49650342 Mo
atom_frac       0.66666740      0.03332576      0.51215684 S
atom_frac       0.66666741      0.03332580      0.48085001 S
atom_frac       0.53353049      0.16678081      0.49650342 Mo
atom_frac       0.66666727      0.23332607      0.51215682 S
atom_frac       0.66666729      0.23332606      0.48085003 S
atom_frac       0.53353000      0.36678061      0.49650342 Mo
atom_frac       0.66666691      0.43332564      0.51215682 S
atom_frac       0.66666691      0.43332564      0.48085003 S
atom_frac       0.73353068      0.56678108      0.49650342 Mo
atom_frac       0.86666734      0.63332618      0.51215681 S
atom_frac       0.86666728      0.63332615      0.48085003 S
atom_frac       0.73352973      0.76678041      0.49650341 Mo
atom_frac       0.86666672      0.83332551      0.51215683 S
atom_frac       0.86666670      0.83332548      0.48084999 S
atom_frac       0.73352958      0.96678086      0.49650342 Mo
atom_frac       0.86666710      0.03332532      0.51215676 S
atom_frac       0.86666707      0.03332535      0.48085007 S
atom_frac       0.73352983      0.16678143      0.49650343 Mo
atom_frac       0.86666718      0.23332550      0.51215682 S
atom_frac       0.86666713      0.23332550      0.48085003 S
atom_frac       0.73353054      0.36678196      0.49650342 Mo
atom_frac       0.86666756      0.43332585      0.51215680 S
atom_frac       0.86666753      0.43332580      0.48085003 S
atom_frac       0.93353005      0.56678177      0.49650341 Mo
atom_frac       0.06666754      0.63332572      0.51215676 S
atom_frac       0.06666755      0.63332573      0.48085008 S
atom_frac       0.93353079      0.76678232      0.49650341 Mo
atom_frac       0.06666730      0.83332569      0.51215687 S
atom_frac       0.06666731      0.83332568      0.48084997 S
atom_frac       0.93353075      0.96678070      0.49650341 Mo
atom_frac       0.06666728      0.03332610      0.51215683 S
atom_frac       0.06666732      0.03332611      0.48085000 S
atom_frac       0.93352997      0.16678104      0.49650342 Mo
atom_frac       0.06666704      0.23332553      0.51215681 S
atom_frac       0.06666703      0.23332555      0.48085003 S
atom_frac       0.93352970      0.36678066      0.49650342 Mo
atom_frac       0.06666697      0.43332541      0.51215682 S
atom_frac       0.06666695      0.43332539      0.48085003 S
atom_frac       0.13353006      0.56678032      0.49650342 Mo
atom_frac       0.26666705      0.63332589      0.51215680 S
atom_frac       0.26666705      0.63332588      0.48085004 S
atom_frac       0.13352997      0.76678175      0.49650342 Mo
atom_frac       0.26666694      0.83332507      0.51215684 S
atom_frac       0.26666693      0.83332507      0.48085000 S
atom_frac       0.13352967      0.96678132      0.49650342 Mo
atom_frac       0.26666730      0.03332550      0.51215680 S
atom_frac       0.26666731      0.03332550      0.48085003 S
atom_frac       0.13353089      0.16678187      0.49650341 Mo
atom_frac       0.26666748      0.23332590      0.51215684 S
atom_frac       0.26666752      0.23332595      0.48085000 S
atom_frac       0.13353027      0.36678100      0.49650342 Mo
atom_frac       0.26666715      0.43332593      0.51215682 S
atom_frac       0.26666716      0.43332592      0.48085002 S
atom_frac       0.33353039      0.56678169      0.49650342 Mo
atom_frac       0.46666738      0.63332597      0.51215682 S
atom_frac       0.46666738      0.63332597      0.48085002 S
atom_frac       0.33353095      0.76678166      0.49650342 Mo
atom_frac       0.46666723      0.83332587      0.51215685 S
atom_frac       0.46666726      0.83332590      0.48084999 S
atom_frac       0.33352942      0.96678002      0.49650342 Mo
atom_frac       0.46666675      0.03332550      0.51215681 S
atom_frac       0.46666678      0.03332552      0.48085003 S
atom_frac       0.33352952      0.16678085      0.49650341 Mo
atom_frac       0.46666700      0.23332542      0.51215678 S
atom_frac       0.46666704      0.23332544      0.48085006 S
atom_frac       0.33353004      0.36678162      0.49650342 Mo
atom_frac       0.46666735      0.43332556      0.51215679 S
atom_frac       0.46666733      0.43332552      0.48085005 S
# 
# What follows is the current estimated Hessian matrix constructed by the BFGS algorithm.
# This is NOT the true Hessian matrix of the system.
# If you do not want this information here, switch it off using the "hessian_to_restart_geometry" keyword.
# 
trust_radius             0.0006253660
hessian_file
