# 
# This is the geometry file that corresponds to the current relaxation step.
# If you do not want this file to be written, set the "write_restart_geometry" flag to .false.
#  aims_uuid : 69016296-E340-4A86-A5D3-EDC731A1AB50                                
# 
  set_vacuum_level        52.665000
lattice_vector      3.26246419     -0.00038245     -0.00760262
lattice_vector     -1.63133175      2.82516363     -0.00602122
lattice_vector      0.00004322      0.00002895     99.93944710
atom      -0.00009817      0.94167908      2.66009886 Mo
atom       1.63500939      1.88889894      4.31550286 Se
atom       1.62739033      1.87732919      0.99058358 Se
# 
# What follows is the current estimated Hessian matrix constructed by the BFGS algorithm.
# This is NOT the true Hessian matrix of the system.
# If you do not want this information here, switch it off using the "hessian_to_restart_geometry" keyword.
# 
trust_radius             0.0003083035
hessian_file
