# 
# This is the geometry file that corresponds to the current relaxation step.
# If you do not want this file to be written, set the "write_restart_geometry" flag to .false.
#  aims_uuid : 7BB56ED9-1CBC-463C-A437-A9BE6D3D0767                                
# 
  set_vacuum_level        52.830000
lattice_vector     16.47707927     -0.00250281     -0.00010351
lattice_vector     -8.24054479     14.26816969     -0.00010499
lattice_vector     -0.00000023     -0.00000044    100.28763910
atom      -0.00735215      0.93836712      2.66096921 W
atom       1.63594370      1.85953969      4.36341013 Se
atom       1.64948251      1.89275839      0.97606448 Se
atom      -1.63726694      3.81057024      2.66275534 W
atom       0.01933122      4.77914946      4.34399918 Se
atom       0.03292258      4.76024695      0.98709649 Se
atom      -3.31025191      6.65960986      2.66606591 W
atom      -1.65509482      7.61538227      4.35217451 Se
atom      -1.68834014      7.62021627      0.96685930 Se
atom      -4.94399580      9.51245806      2.66368921 W
atom      -3.30347605     10.46524948      4.35698854 Se
atom      -3.30217504     10.46852674      0.96916865 Se
atom      -6.59032064     12.36566600      2.66422228 W
atom      -4.94513462     13.30896115      4.35861302 Se
atom      -4.94717641     13.30990254      0.97177275 Se
atom       3.29637837      0.93549866      2.66609762 W
atom       4.94033651      1.89159412      4.35586091 Se
atom       4.95192872      1.85833161      0.96852149 Se
atom       1.67210716      3.77027619      2.70018502 W
atom       3.25285237      4.74034281      4.32727702 Se
atom       3.33898333      4.74093779      1.00480661 Se
atom      -0.01740532      6.69600893      2.62960962 W
atom       1.65313117      7.65387950      4.32641172 Se
atom       1.61462639      7.57880962      1.00359522 Se
atom      -1.66134338      9.51828811      2.66173527 W
atom      -0.03386924     10.49301134      4.35970110 Se
atom      -0.01228981     10.46474032      0.97351720 Se
atom      -3.29803471     12.36564631      2.66460257 W
atom      -1.65295281     13.31352889      4.35984188 Se
atom      -1.65515208     13.31526369      0.96787367 Se
atom       6.59766730      0.93856354      2.66864873 W
atom       8.24020257      1.90528212      4.35554421 Se
atom       8.23369201      1.90550077      0.97462110 Se
atom       4.91882882      3.76889461      2.63039787 W
atom       6.55868774      4.75974899      4.34159719 Se
atom       6.57000833      4.77943461      0.98750897 Se
atom       4.97640253      7.57807584      4.32675452 Se
atom       4.93671010      7.65218913      1.00122400 Se
atom       1.60413089      9.50721911      2.69787395 W
atom       3.30392433     10.43182335      4.34071470 Se
atom       3.28270966     10.42982818      0.98631570 Se
atom      -0.00968987     12.37560107      2.65886721 W
atom       1.64656675     13.31177939      4.35046433 Se
atom       1.64753345     13.31508904      0.97083246 Se
atom       9.88408806      0.94871241      2.66255020 W
atom      11.53388683      1.90090396      4.35206708 Se
atom      11.53226118      1.90026547      0.97288885 Se
atom       8.22861119      3.81037905      2.66407572 W
atom       9.88257141      4.75615468      4.35274285 Se
atom       9.88319669      4.75370268      0.97178428 Se
atom       6.60898682      6.69572894      2.69922386 W
atom       8.28050993      7.61881048      4.36087644 Se
atom       8.24455484      7.61371523      0.97464833 Se
atom       4.98267397      9.50508236      2.62974727 W
atom       6.59896089     10.46400210      4.35306658 Se
atom       6.61930331     10.49030642      0.96651998 Se
atom       3.29238546     12.35237138      2.66228636 W
atom       4.93742131     13.31366921      4.35417780 Se
atom       4.94014873     13.31091769      0.97368316 Se
atom      13.18146690      0.94950660      2.66122389 W
atom      14.83024812      1.90264413      4.35210025 Se
atom      14.82882549      1.90231290      0.97006134 Se
atom      11.53269534      3.80393012      2.66237921 W
atom      13.18444666      4.75147776      4.35344541 Se
atom      13.18621532      4.75452106      0.97354786 Se
atom       9.89971862      6.65764292      2.65976853 W
atom      11.53390301      7.61245176      4.35918199 Se
atom      11.53288087      7.61301384      0.96626159 Se
atom       8.24984576      9.51725184      2.66335824 W
atom       9.88981754     10.46503337      4.35679514 Se
atom       9.89040867     10.46448104      0.96971347 Se
atom       6.59679584     12.37570765      2.66743105 W
atom       8.23954445     13.31200955      4.36053813 Se
atom       8.24010072     13.31258436      0.96775416 Se
# 
# What follows is the current estimated Hessian matrix constructed by the BFGS algorithm.
# This is NOT the true Hessian matrix of the system.
# If you do not want this information here, switch it off using the "hessian_to_restart_geometry" keyword.
# 
trust_radius             0.0104427657
hessian_file
