# 
# This is the geometry file that corresponds to the current relaxation step.
# If you do not want this file to be written, set the "write_restart_geometry" flag to .false.
#  aims_uuid : 6D7990E0-BB89-4351-A420-C34A117C6949                                
# 
  set_vacuum_level        52.830000
lattice_vector     16.47707927     -0.00250281     -0.00010351
lattice_vector     -8.24054479     14.26816969     -0.00010499
lattice_vector     -0.00000023     -0.00000044    100.28763910
atom      -0.00774041      0.93537658      2.66386478 W
atom       1.64071994      1.87735856      4.34894122 Se
atom       1.64072490      1.87736736      0.97874083 Se
atom      -1.63842733      3.81065831      2.66384262 W
atom       0.02328898      4.76962244      4.33660084 Se
atom       0.02329289      4.76963318      0.99103861 Se
atom      -3.31393415      6.66006487      2.66382370 W
atom      -1.67384528      7.61577030      4.34901965 Se
atom      -1.67384067      7.61578412      0.97858537 Se
atom      -4.94461261      9.51222995      2.66380138 W
atom      -3.30295063     10.46635162      4.35185702 Se
atom      -3.30294218     10.46636335      0.97570428 Se
atom      -6.59258843     12.36561746      2.66378079 W
atom      -4.94496510     13.30965649      4.35184407 Se
atom      -4.94495778     13.30966676      0.97567180 Se
atom       3.29537268      0.93580322      2.66384355 W
atom       4.94994964      1.87666035      4.34904665 Se
atom       4.94995641      1.87667413      0.97859466 Se
atom       1.67442780      3.78032561      2.66381891 W
atom       3.29517960      4.73365689      4.33181371 Se
atom       3.29518131      4.73365519      0.99578351 Se
atom      -0.00875293      6.69398664      2.66380002 W
atom       1.62768213      7.61972593      4.33170245 Se
atom       1.62769100      7.61973938      0.99586405 Se
atom      -1.66209457      9.51912995      2.66378332 W
atom      -0.01970318     10.48083901      4.34900142 Se
atom      -0.01969423     10.48084777      0.97852012 Se
atom      -3.29734558     12.36516239      2.66376156 W
atom      -1.65476981     13.31307692      4.35661854 Se
atom      -1.65476301     13.31308794      0.97085707 Se
atom       6.59827531      0.93434879      2.66382441 W
atom       8.23824594      1.90294163      4.34912433 Se
atom       8.23825330      1.90295255      0.97847656 Se
atom       4.91568058      3.77945211      2.66380420 W
atom       6.56656373      4.76830910      4.33665441 Se
atom       6.56656800      4.76831923      0.99090627 Se
atom       4.96090358      7.61868622      4.33176428 Se
atom       4.96090060      7.61868747      0.99576231 Se
atom       1.61128988      9.49978861      2.66376763 W
atom       3.29382448     10.43418046      4.33653619 Se
atom       3.29382897     10.43418781      0.99094861 Se
atom      -0.01179641     12.37905067      2.66374056 W
atom       1.64749384     13.31434840      4.34901357 Se
atom       1.64750111     13.31435928      0.97842217 Se
atom       9.88644036      0.94985694      2.66380490 W
atom      11.53375241      1.90049444      4.34884772 Se
atom      11.53375850      1.90050574      0.97871013 Se
atom       8.22814770      3.80896804      2.66378120 W
atom       9.88391320      4.75315886      4.34907774 Se
atom       9.88391995      4.75317161      0.97843978 Se
atom       6.59738965      6.69254707      2.66375948 W
atom       8.26251000      7.61397651      4.34893918 Se
atom       8.26251818      7.61398921      0.97853888 Se
atom       4.97612897      9.49879351      2.66374601 W
atom       6.60731426     10.47955350      4.34880855 Se
atom       6.60731806     10.47956279      0.97862830 Se
atom       3.29348016     12.35269827      2.66371983 W
atom       4.93958473     13.31381074      4.34897511 Se
atom       4.93959071     13.31382104      0.97841971 Se
atom      13.18103339      0.94937451      2.66378272 W
atom      14.82933718      1.90205196      4.34904395 Se
atom      14.82934311      1.90206354      0.97847302 Se
atom      11.53335646      3.80239373      2.66376304 W
atom      13.18284203      4.75275499      4.34903562 Se
atom      13.18284847      4.75276747      0.97844067 Se
atom       9.90267857      6.65791186      2.66374230 W
atom      11.53288755      7.61316184      4.35660235 Se
atom      11.53289421      7.61317305      0.97083224 Se
atom       8.24995830      9.51737054      2.66372154 W
atom       9.89075088     10.46427172      4.35176586 Se
atom       9.89075601     10.46428275      0.97562689 Se
atom       6.59888474     12.37798573      2.66370069 W
atom       8.24191279     13.31154745      4.35654582 Se
atom       8.24191786     13.31155839      0.97080469 Se
# 
# What follows is the current estimated Hessian matrix constructed by the BFGS algorithm.
# This is NOT the true Hessian matrix of the system.
# If you do not want this information here, switch it off using the "hessian_to_restart_geometry" keyword.
# 
trust_radius             0.0422035104
hessian_file
