&CONTROL
calculation = "scf"
pseudo_dir = "" ! insert pseudopotential directory
prefix = "unfold"
disk_io = "low"
/

&SYSTEM
ibrav = 0
nat = 73
ntyp = 2
ecutwfc = 30
!noncolin = .true.
!lspinorb = .true.
/

&ELECTRONS
/

ATOMIC_SPECIES
Se 1. ! add Se pseudo name
Mo 1. ! add Mo pseudo name

CELL_PARAMETERS angstrom
16.60000000	0.00000000	0.00000000
-8.30000000	14.37602170	0.00000000
0.00000000	0.00000000	100.00000000

ATOMIC_POSITIONS angstrom
Mo	0.00090506	0.97908061	2.66500000
Se	1.66000885	1.95534901	4.32310273
Se	1.66000885	1.95534901	1.00689727
Mo	-1.63457637	3.88084640	2.66500000
Se	0.05488617	4.92663475	4.31936942
Se	0.05488617	4.92663475	1.01063058
Mo	-3.26633088	6.70718588	2.66500000
Se	-1.51589447	7.64733998	4.31939048
Se	-1.51589447	7.64733998	1.01060952
Mo	-4.96165838	9.57439496	2.66500000
Se	-3.28657937	10.52310862	4.32308788
Se	-3.28657937	10.52310862	1.00691212
Mo	-6.64003621	12.45919919	2.66500000
Se	-4.97209766	13.42214953	4.32208387
Se	-4.97209766	13.42214953	1.00791613
Mo	3.31913963	0.97906448	2.66500000
Se	4.97229983	1.94702293	4.32536271
Se	4.97229983	1.94702293	1.00463729
Mo	1.66007231	3.89953599	2.66500000
Se	3.26523659	4.92663582	4.31937150
Se	3.26523659	4.92663582	1.01062850
Mo	0.23377928	6.84376622	2.66500000
Mo	-1.60281384	9.55099543	2.66500000
Se	0.08921344	10.42763991	4.31938022
Se	0.08921344	10.42763991	1.01061978
Mo	-3.30249650	12.44810360	2.66500000
Se	-1.63765121	13.39581082	4.32535735
Se	-1.63765121	13.39581082	1.00464265
Mo	6.63699491	0.95665054	2.66500000
Se	8.29699491	1.91508346	4.32803431
Se	8.29699491	1.91508346	1.00196569
Mo	4.95463759	3.88079991	2.66500000
Se	6.62359191	4.80149386	4.33004614
Se	6.62359191	4.80149386	0.99995386
Mo	3.08621130	6.84376407	2.66500000
Se	4.83587625	7.64737432	4.31939379
Se	4.83587625	7.64737432	1.01060621
Mo	1.65994974	9.31408876	2.66500000
Se	3.23069092	10.42764837	4.31938578
Se	3.23069092	10.42764837	1.01061422
Mo	0.02825712	12.41360941	2.66500000
Se	1.65998596	13.39874541	4.33005960
Se	1.65998596	13.39874541	0.99994040
Mo	9.96001909	0.94977212	2.66500000
Se	11.62305256	1.91509418	4.32804123
Se	11.62305256	1.91509418	1.00195877
Mo	8.29249609	3.83796974	2.66500000
Se	9.96002818	4.79551104	4.32803740
Se	9.96002818	4.79551104	1.00196260
Mo	6.58632023	6.70719575	2.66500000
Se	8.26990836	7.65877757	4.32535235
Se	8.26990836	7.65877757	1.00464765
Mo	4.92271454	9.55101532	2.66500000
Se	6.60650242	10.52312567	4.32308451
Se	6.60650242	10.52312567	1.00691549
Mo	3.29171921	12.41363472	2.66500000
Se	4.95763848	13.39582784	4.32534815
Se	4.95763848	13.39582784	1.00465185
Mo	13.28301261	0.95667575	2.66500000
Se	14.94776059	1.94704014	4.32535491
Se	14.94776059	1.94704014	1.00464509
Mo	11.62754743	3.83797351	2.66500000
Se	13.29647037	4.80149665	4.33005145
Se	13.29647037	4.80149665	0.99994855
Mo	9.95999899	6.71231008	2.66500000
Se	11.65007439	7.65875906	4.32535638
Se	11.65007439	7.65875906	1.00464362
Mo	8.28157204	9.57443391	2.66500000
Se	9.95997285	10.53326584	4.32208557
Se	9.95997285	10.53326584	1.00791443
Mo	6.62248944	12.44811496	2.66500000
Se	8.29206746	13.42217896	4.32209183
Se	8.29206746	13.42217896	1.00790817

K_POINTS automatic
4 4 1 0 0 0