# 
# This is the geometry file that corresponds to the current relaxation step.
# If you do not want this file to be written, set the "write_restart_geometry" flag to .false.
#  aims_uuid : 4694B7AA-E969-497F-A44B-305FF1E52048                                
# 
  set_vacuum_level        52.740750
lattice_vector     16.29568820      0.00000000      0.00000000
lattice_vector     -8.14028310     14.11790945      0.00000000
lattice_vector      0.00000000      0.00000000    100.31494303
atom_frac       0.03542683      0.06884974      0.02694049 W
atom_frac       0.17588749      0.14335157      0.04267934 Se
atom_frac       0.16637530      0.13458493      0.00970260 Se
atom_frac       0.03954326      0.26975188      0.02710885 W
atom_frac       0.18996793      0.34496854      0.04260376 Se
atom_frac       0.16834870      0.33417823      0.00947515 Se
atom_frac       0.03544544      0.46655743      0.02694409 W
atom_frac       0.17593627      0.53254644      0.04268284 Se
atom_frac       0.16636788      0.53179049      0.00970311 Se
atom_frac       0.03304675      0.66620310      0.02689075 W
atom_frac       0.16812133      0.73221492      0.04319205 Se
atom_frac       0.16567297      0.73314440      0.01009872 Se
atom_frac       0.03304348      0.86681725      0.02688925 W
atom_frac       0.16811233      0.93590437      0.04319131 Se
atom_frac       0.16567317      0.93252499      0.01009786 Se
atom_frac       0.23431040      0.06879654      0.02630372 W
atom_frac       0.36613824      0.13985934      0.04283831 Se
atom_frac       0.36859148      0.13440443      0.00980493 Se
atom_frac       0.24524200      0.27379932      0.02527747 W
atom_frac       0.36907534      0.33418677      0.00762616 Se
atom_frac       0.24524325      0.47141569      0.02527754 W
atom_frac       0.36906642      0.53491905      0.00762574 Se
atom_frac       0.23431514      0.66548449      0.02630449 W
atom_frac       0.36614967      0.72629238      0.04283827 Se
atom_frac       0.36858548      0.73419532      0.00980485 Se
atom_frac       0.23341154      0.86669440      0.02673769 W
atom_frac       0.36603602      0.93302152      0.04343475 Se
atom_frac       0.36752199      0.93376616      0.01028347 Se
atom_frac       0.43347110      0.06757206      0.02688068 W
atom_frac       0.56509360      0.13354645      0.04378170 Se
atom_frac       0.56794780      0.13352039      0.01058149 Se
atom_frac       0.42823420      0.27077320      0.02567304 W
atom_frac       0.55741750      0.33295254      0.04303861 Se
atom_frac       0.56545596      0.33149124      0.00998681 Se
atom_frac       0.42514930      0.46258501      0.02433265 W
atom_frac       0.54549756      0.52277630      0.04245326 Se
atom_frac       0.56449672      0.53224602      0.00918678 Se
atom_frac       0.42825384      0.65746967      0.02567225 W
atom_frac       0.55746406      0.72452484      0.04303472 Se
atom_frac       0.56545512      0.73397050      0.00998448 Se
atom_frac       0.43347585      0.86588600      0.02688007 W
atom_frac       0.56510381      0.93156230      0.04377975 Se
atom_frac       0.56794446      0.93445080      0.01057952 Se
atom_frac       0.63350729      0.06674963      0.02736209 W
atom_frac       0.76726033      0.13363159      0.04406680 Se
atom_frac       0.76772984      0.13387921      0.01091162 Se
atom_frac       0.63177016      0.26646892      0.02712645 W
atom_frac       0.76531677      0.33369289      0.04387291 Se
atom_frac       0.76683564      0.33255672      0.01075285 Se
atom_frac       0.62700269      0.46452051      0.02649760 W
atom_frac       0.76051557      0.53118457      0.04341824 Se
atom_frac       0.76502438      0.53201548      0.01044518 Se
atom_frac       0.62701806      0.66247735      0.02649508 W
atom_frac       0.76052687      0.72936182      0.04341596 Se
atom_frac       0.76503072      0.73301029      0.01044251 Se
atom_frac       0.63178334      0.86530327      0.02712222 W
atom_frac       0.76532363      0.93164021      0.04386893 Se
atom_frac       0.76684084      0.93429657      0.01074845 Se
atom_frac       0.83455271      0.06735880      0.02746582 W
atom_frac       0.97158768      0.13644697      0.04379944 Se
atom_frac       0.96743805      0.13515572      0.01073764 Se
atom_frac       0.83455496      0.26718050      0.02746869 W
atom_frac       0.97160457      0.33513811      0.04380153 Se
atom_frac       0.96744123      0.33229663      0.01074053 Se
atom_frac       0.83226941      0.46626793      0.02718752 W
atom_frac       0.96805273      0.53340811      0.04357638 Se
atom_frac       0.96571541      0.53192485      0.01049744 Se
atom_frac       0.83085211      0.66541740      0.02699917 W
atom_frac       0.96571896      0.73286418      0.04347210 Se
atom_frac       0.96491473      0.73245328      0.01040337 Se
atom_frac       0.83227162      0.86598736      0.02718337 W
atom_frac       0.96804003      0.93464134      0.04357328 Se
atom_frac       0.96571604      0.93378546      0.01049353 Se
# 
# What follows is the current estimated Hessian matrix constructed by the BFGS algorithm.
# This is NOT the true Hessian matrix of the system.
# If you do not want this information here, switch it off using the "hessian_to_restart_geometry" keyword.
# 
