# 
# This is the geometry file that corresponds to the current relaxation step.
# If you do not want this file to be written, set the "write_restart_geometry" flag to .false.
#  aims_uuid : C63F4D8E-FBEB-446E-AA37-A0E8CAB84CF3                                
# 
lattice_vector      0.00000000      2.07369485      2.07369485
lattice_vector      2.07369485      0.00000000      2.07369485
lattice_vector      2.07369485      2.07369485      0.00000000
atom       0.00000000      0.00000000      0.00000000 Au
# 
# What follows is the current estimated Hessian matrix constructed by the BFGS algorithm.
# This is NOT the true Hessian matrix of the system.
# If you do not want this information here, switch it off using the "hessian_to_restart_geometry" keyword.
# 
trust_radius             0.2000000030
hessian_file
