# 
# This is the geometry file that corresponds to the current relaxation step.
# If you do not want this file to be written, set the "write_restart_geometry" flag to .false.
#  aims_uuid : 8729EA50-AA2F-41D1-A585-2BB0645CE590                                
# 
  set_vacuum_level        52.665000
lattice_vector     16.36921294     -0.00050996      0.00213826
lattice_vector     -8.18492289     14.17576738      0.00575029
lattice_vector     -0.00001698     -0.00020976     99.61289576
atom       0.00065299      0.95495875      2.66889521 W
atom       1.63656180      1.93371586      4.34294226 Se
atom       1.63717075      1.88896046      0.96506960 Se
atom      -1.62519344      3.80030232      2.66697386 W
atom       0.05693987      4.83047513      4.30637508 Se
atom      -0.01440763      4.74601554      0.93292403 Se
atom      -3.25060838      6.61545116      2.66822821 W
atom      -1.51661356      7.55602703      4.30751786 Se
atom      -1.62668802      7.53851741      0.93413862 Se
atom      -4.90203601      9.44619546      2.67250436 W
atom      -3.23563924     10.37229855      4.34646201 Se
atom      -3.27536169     10.39718975      0.96860142 Se
atom      -6.54797896     12.28564841      2.67427304 W
atom      -4.90786296     13.23175200      4.36423127 Se
atom      -4.90750781     13.23325567      0.98554675 Se
atom       3.27310514      0.95489004      2.66946752 W
atom       4.89503981      1.91034323      4.36898087 Se
atom       4.91788846      1.89556650      0.98626490 Se
atom       1.63684275      3.81606014      2.62270257 W
atom       3.21620237      4.83045031      4.30680984 Se
atom       3.28865068      4.74596184      0.93342485 Se
atom       0.11031484      6.67892906      2.55815908 W
atom       1.63700198      7.56116351      0.76128333 Se
atom      -1.60596022      9.43242073      2.62504234 W
atom       0.06288124     10.29179640      4.30902236 Se
atom       0.02466994     10.39874307      0.93571405 Se
atom      -3.26590221     12.27993297      2.67411041 W
atom      -1.62668633     13.20563754      4.37355887 Se
atom      -1.62934251     13.23488536      0.99088142 Se
atom       6.54477942      0.94312024      2.68920993 W
atom       8.17918235      1.88596877      4.38720969 Se
atom       8.18670843      1.89175829      1.00443661 Se
atom       4.89878194      3.80008532      2.66802817 W
atom       6.52437260      4.73737203      4.37480554 Se
atom       6.55361604      4.72241438      0.98875235 Se
atom       3.16300253      6.67908234      2.55869574 W
atom       4.78969851      7.55580563      4.30829940 Se
atom       4.90075949      7.53818402      0.93493685 Se
atom       1.63671841      9.32308736      2.55954096 W
atom       3.21004445     10.29172539      4.30936885 Se
atom       3.24918109     10.39864138      0.93602275 Se
atom       0.01129285     12.26518211      2.67133311 W
atom       1.63643139     13.20307523      4.37816037 Se
atom       1.63683632     13.23795827      0.99215820 Se
atom       9.82147368      0.93967160      2.69507180 W
atom      11.46337876      1.88586068      4.38754457 Se
atom      11.45668487      1.89165404      1.00476359 Se
atom       8.18011100      3.78241470      2.69633299 W
atom       9.82120979      4.72995980      4.38878995 Se
atom       9.82162837      4.72342919      1.00601344 Se
atom       6.52418797      6.61519236      2.66957696 W
atom       8.15804272      7.56190100      4.37208821 Se
atom       8.18392049      7.55239745      0.98939175 Se
atom       4.87930132      9.43214593      2.62578562 W
atom       6.50851716     10.37207414      4.34757637 Se
atom       6.54926370     10.39685485      0.96977138 Se
atom       3.26196810     12.26502466      2.67164585 W
atom       4.89947639     13.20545123      4.37425538 Se
atom       4.90307367     13.23465461      0.99156078 Se
atom      13.09818315      0.94293795      2.68985314 W
atom      14.74742772      1.91001285      4.37013280 Se
atom      14.72561687      1.89522746      0.98739476 Se
atom      11.46270623      3.78228715      2.69664558 W
atom      13.11799379      4.73711845      4.37559832 Se
atom      13.08969198      4.72224592      0.98957951 Se
atom       9.82142328      6.61828166      2.69234437 W
atom      11.48424634      7.56178577      4.37254939 Se
atom      11.45931348      7.55234508      0.98984573 Se
atom       8.17536056      9.44571991      2.67415431 W
atom       9.82102652     10.39022655      4.36476857 Se
atom       9.82157975     10.39209610      0.98608718 Se
atom       6.53910700     12.27962079      2.67518804 W
atom       8.18054995     13.23136689      4.36584321 Se
atom       8.18133940     13.23284662      0.98714432 Se
# 
# What follows is the current estimated Hessian matrix constructed by the BFGS algorithm.
# This is NOT the true Hessian matrix of the system.
# If you do not want this information here, switch it off using the "hessian_to_restart_geometry" keyword.
# 
trust_radius             0.0674198548
hessian_file
