# 
# This is the geometry file that corresponds to the current relaxation step.
# If you do not want this file to be written, set the "write_restart_geometry" flag to .false.
#  aims_uuid : 3DCF8582-17AE-4471-A6BA-174A3AE053C1                                
# 
  set_vacuum_level        52.600000
lattice_vector     15.69941243     -0.00066385     -0.00653398
lattice_vector     -7.85022264     13.59569427     -0.00908851
lattice_vector      0.00014649      0.00034546     99.03123335
atom       0.00031583      0.92135391      2.57399234 W
atom       1.57057802      1.84140033      4.15215835 S
atom       1.56925953      1.83853073      0.99284878 S
atom      -1.54927880      3.65805449      2.57216798 W
atom       0.04172234      4.63538708      4.14932748 S
atom       0.04041804      4.63247360      0.99189739 S
atom      -3.10145406      6.34633123      2.57036461 W
atom      -1.46030929      7.23693583      4.14747634 S
atom      -1.46165145      7.23405562      0.99024704 S
atom      -4.69718440      9.05668912      2.56854086 W
atom      -3.11583479      9.95781496      4.14664404 S
atom      -3.11714774      9.95491476      0.98747195 S
atom      -6.28022336     11.78289796      2.56671493 W
atom      -4.70402601     12.69390467      4.14398764 S
atom      -4.70534210     12.69103381      0.98647783 S
atom       3.13953500      0.92111393      2.57267947 W
atom       4.70455748      1.83567290      4.15323991 S
atom       4.70322637      1.83279165      0.98912740 S
atom       1.56966862      3.67510488      2.57084535 W
atom       3.09918834      4.63526254      4.14791149 S
atom       3.09785287      4.63238488      0.99074102 S
atom       0.15583607      6.43447882      2.56886538 W
atom      -1.52705875      9.03880456      2.56724134 W
atom       0.06821565      9.88460904      4.14448604 S
atom       0.06694512      9.88170072      0.98710274 S
atom      -3.12761643     11.77514066      2.56540275 W
atom      -1.55382472     12.67462543      4.14590898 S
atom      -1.55514819     12.67173885      0.98193220 S
atom       6.27617788      0.90421966      2.57135968 W
atom       7.84803386      1.81247208      4.15221493 S
atom       7.84671419      1.80960092      0.98754698 S
atom       4.68893520      3.65773238      2.56953781 W
atom       6.26690840      4.54074038      4.15008806 S
atom       6.26559279      4.53785876      0.98606178 S
atom       2.98347439      6.43452342      2.56773297 W
atom       4.60103613      7.23664002      4.14498034 S
atom       4.59972113      7.23373433      0.98765600 S
atom       1.56950103      8.88339715      2.56616037 W
atom       3.07223518      9.88442511      4.14317261 S
atom       3.07086786      9.88152206      0.98589210 S
atom       0.01731844     11.74832058      2.56410344 W
atom       1.57007073     12.67502409      4.14465174 S
atom       1.56875429     12.67213139      0.98055846 S
atom       9.41972846      0.89913586      2.57004467 W
atom      10.99250071      1.81241484      4.15100323 S
atom      10.99120234      1.80955997      0.98615708 S
atom       7.84357279      3.62855638      2.56824171 W
atom       9.42015517      4.53549430      4.14916348 S
atom       9.41886045      4.53262122      0.98439033 S
atom       6.24094850      6.34614986      2.56645004 W
atom       7.82841610      7.24618246      4.14698715 S
atom       7.82711841      7.24329143      0.98296240 S
atom       4.66627535      9.03842966      2.56463531 W
atom       6.25629290      9.95742782      4.14277554 S
atom       6.25500073      9.95453694      0.98351878 S
atom       3.12148404     11.74828541      2.56280009 W
atom       4.69409263     12.67433698      4.14326437 S
atom       4.69279276     12.67146125      0.97936841 S
atom      12.56276685      0.90395924      2.56874782 W
atom      14.13589494      1.83522748      4.14925965 S
atom      14.13460331      1.83236994      0.98529118 S
atom      10.99541367      3.62848803      2.56695308 W
atom      12.57340010      4.54038086      4.14754558 S
atom      12.57209944      4.53750066      0.98341790 S
atom       9.41946481      6.34805261      2.56514227 W
atom      11.01177430      7.24606398      4.14563935 S
atom      11.01047297      7.24316112      0.98168044 S
atom       7.83624656      9.05610722      2.56332333 W
atom       9.41990796      9.96449485      4.14060184 S
atom       9.41860149      9.96160755      0.98306833 S
atom       6.26655997     11.77462667      2.56148708 W
atom       7.84424438     12.69336678      4.13871731 S
atom       7.84294591     12.69050739      0.98130330 S
# 
# What follows is the current estimated Hessian matrix constructed by the BFGS algorithm.
# This is NOT the true Hessian matrix of the system.
# If you do not want this information here, switch it off using the "hessian_to_restart_geometry" keyword.
# 
trust_radius             0.0958098518
hessian_file
