# 
# This is the geometry file that corresponds to the current relaxation step.
# If you do not want this file to be written, set the "write_restart_geometry" flag to .false.
#  aims_uuid : D0DCE3A5-DDEA-4266-AD98-758EE5E89F02                                
# 
  set_vacuum_level        52.600000
lattice_vector     15.69941243     -0.00066385     -0.00653398
lattice_vector     -7.85022264     13.59569427     -0.00908851
lattice_vector      0.00014649      0.00034546     99.03123335
atom       0.00029288      0.92130304      2.57399437 W
atom       1.57056628      1.84140149      4.15215239 S
atom       1.56924798      1.83855876      0.99284307 S
atom      -1.54929469      3.65805062      2.57217254 W
atom       0.04171913      4.63542185      4.14931099 S
atom       0.04040377      4.63245670      0.99189699 S
atom      -3.10148551      6.34636771      2.57035741 W
atom      -1.46031303      7.23692203      4.14748995 S
atom      -1.46166455      7.23405161      0.99021428 S
atom      -4.69712929      9.05667582      2.56854134 W
atom      -3.11581737      9.95783820      4.14667641 S
atom      -3.11716520      9.95492841      0.98746319 S
atom      -6.28025014     11.78293792      2.56670520 W
atom      -4.70404355     12.69390232      4.14401003 S
atom      -4.70531975     12.69103567      0.98646576 S
atom       3.13949721      0.92115038      2.57266619 W
atom       4.70456775      1.83568014      4.15323143 S
atom       4.70323334      1.83277534      0.98911088 S
atom       1.56974239      3.67515324      2.57085066 W
atom       3.09919131      4.63525965      4.14793861 S
atom       3.09784358      4.63235807      0.99072593 S
atom       0.15584800      6.43456402      2.56890198 W
atom      -1.52706717      9.03874411      2.56723015 W
atom       0.06820343      9.88460324      4.14447550 S
atom       0.06694746      9.88172847      0.98709304 S
atom      -3.12759843     11.77508890      2.56541644 W
atom      -1.55384968     12.67465086      4.14592884 S
atom      -1.55516629     12.67175766      0.98192595 S
atom       6.27626831      0.90419578      2.57136927 W
atom       7.84801347      1.81248834      4.15223568 S
atom       7.84669741      1.80960177      0.98753051 S
atom       4.68890236      3.65779047      2.56951442 W
atom       6.26691934      4.54072073      4.15009489 S
atom       6.26563365      4.53782573      0.98602416 S
atom       2.98352118      6.43447797      2.56771907 W
atom       4.60100876      7.23665140      4.14498524 S
atom       4.59971174      7.23373827      0.98766666 S
atom       1.56956458      8.88332726      2.56609406 W
atom       3.07223971      9.88442748      4.14319532 S
atom       3.07086587      9.88153580      0.98589396 S
atom       0.01734916     11.74838094      2.56410297 W
atom       1.57009253     12.67500913      4.14466685 S
atom       1.56878900     12.67210872      0.98055746 S
atom       9.41965917      0.89913746      2.57007705 W
atom      10.99249499      1.81240603      4.15105073 S
atom      10.99120694      1.80955637      0.98615424 S
atom       7.84356442      3.62861037      2.56823952 W
atom       9.42016451      4.53548711      4.14914997 S
atom       9.41887953      4.53261103      0.98436994 S
atom       6.24090675      6.34604505      2.56646052 W
atom       7.82843089      7.24621902      4.14697781 S
atom       7.82710001      7.24327228      0.98296673 S
atom       4.66622948      9.03844342      2.56463247 W
atom       6.25629018      9.95742168      4.14278144 S
atom       6.25500414      9.95452475      0.98351854 S
atom       3.12154497     11.74823077      2.56281903 W
atom       4.69408433     12.67433638      4.14328107 S
atom       4.69276435     12.67146071      0.97935208 S
atom      12.56282754      0.90393510      2.56875468 W
atom      14.13588569      1.83523394      4.14927166 S
atom      14.13459106      1.83237879      0.98528333 S
atom      10.99544629      3.62845773      2.56697043 W
atom      12.57339178      4.54039318      4.14756247 S
atom      12.57209551      4.53753161      0.98342486 S
atom       9.41942878      6.34806610      2.56512485 W
atom      11.01173587      7.24604087      4.14564441 S
atom      11.01048416      7.24315040      0.98168294 S
atom       7.83624933      9.05614801      2.56331610 W
atom       9.41990128      9.96449632      4.14060446 S
atom       9.41860638      9.96160381      0.98306324 S
atom       6.26653887     11.77464338      2.56146785 W
atom       7.84424169     12.69335546      4.13874213 S
atom       7.84293287     12.69050488      0.98127534 S
# 
# What follows is the current estimated Hessian matrix constructed by the BFGS algorithm.
# This is NOT the true Hessian matrix of the system.
# If you do not want this information here, switch it off using the "hessian_to_restart_geometry" keyword.
# 
trust_radius             0.0001775790
hessian_file
