lattice_vector      15.6725379     -0.000     -0.000
lattice_vector      -7.8363193      13.57134925      0.00
lattice_vector      0.0000      0.0000     99.83654525
atom_frac 0.03363205 0.06725877 0.02608807 W
atom_frac 0.16796517 0.13592877 0.04162255 S
atom_frac 0.16666380 0.13332521 0.01030008 S
atom_frac 0.03456107 0.26786546 0.02608735 W
atom_frac 0.17267995 0.33926754 0.04136645 S
atom_frac 0.16639832 0.33459697 0.00997743 S
atom_frac 0.03456312 0.46669362 0.02608729 W
atom_frac 0.17268243 0.53341283 0.04136653 S
atom_frac 0.16639969 0.53180157 0.00997722 S
atom_frac 0.03363172 0.66637519 0.02608809 W
atom_frac 0.16796511 0.73203415 0.04162270 S
atom_frac 0.16666350 0.73333613 0.01029979 S
atom_frac 0.03333259 0.86666649 0.02608782 W
atom_frac 0.16686955 0.93343379 0.04176580 S
atom_frac 0.16694139 0.93347053 0.01041516 S
atom_frac 0.23362718 0.06725721 0.02608821 W
atom_frac 0.36645723 0.13446752 0.04185213 S
atom_frac 0.36727224 0.13372451 0.01047240 S
atom_frac 0.23453039 0.26906294 0.02569859 W
atom_frac 0.36658631 0.33926502 0.04136663 S
atom_frac 0.36819782 0.33459509 0.00997737 S
atom_frac 0.23884485 0.46942430 0.02522189 W
atom_frac 0.36666722 0.53333347 0.00905089 S
atom_frac 0.23453389 0.66546938 0.02569843 W
atom_frac 0.36658908 0.72732065 0.04136638 S
atom_frac 0.36820026 0.73360312 0.00997682 S
atom_frac 0.23362676 0.86636665 0.02608804 W
atom_frac 0.36645832 0.93199070 0.04185185 S
atom_frac 0.36727257 0.93354912 0.01047237 S
atom_frac 0.43320664 0.06660390 0.02625497 W
atom_frac 0.56630289 0.13315163 0.04200531 S
atom_frac 0.56683020 0.13341590 0.01061638 S
atom_frac 0.43330621 0.26786747 0.02608751 W
atom_frac 0.56591737 0.33408215 0.04189449 S
atom_frac 0.56684702 0.33315186 0.01049862 S
atom_frac 0.43057688 0.46941978 0.02522202 W
atom_frac 0.56073117 0.53341166 0.04136653 S
atom_frac 0.56540007 0.53179821 0.00997726 S
atom_frac 0.43057824 0.66116060 0.02522145 W
atom_frac 0.56073036 0.72732088 0.04136623 S
atom_frac 0.56540380 0.73360278 0.00997697 S
atom_frac 0.43330641 0.86543856 0.02608713 W
atom_frac 0.56591815 0.93183690 0.04189423 S
atom_frac 0.56684805 0.93369638 0.01049834 S
atom_frac 0.63319655 0.06639393 0.02630703 W
atom_frac 0.76684922 0.13315029 0.04200531 S
atom_frac 0.76658545 0.13341425 0.01061629 S
atom_frac 0.63319921 0.26680579 0.02630719 W
atom_frac 0.76685069 0.33369793 0.04200541 S
atom_frac 0.76658644 0.33317022 0.01061637 S
atom_frac 0.63213394 0.46669506 0.02608746 W
atom_frac 0.76553394 0.53354284 0.04185211 S
atom_frac 0.76627657 0.53272773 0.01047237 S
atom_frac 0.63093313 0.66546770 0.02569838 W
atom_frac 0.76406787 0.73203538 0.04162241 S
atom_frac 0.76667212 0.73333651 0.01029996 S
atom_frac 0.63213106 0.86543893 0.02608717 W
atom_frac 0.76553034 0.93198976 0.04185192 S
atom_frac 0.76627455 0.93354842 0.01047222 S
atom_frac 0.83339651 0.06660319 0.02625490 W
atom_frac 0.96800800 0.13446609 0.04185204 S
atom_frac 0.96645018 0.13372281 0.01047229 S
atom_frac 0.83360795 0.26680212 0.02630710 W
atom_frac 0.96816527 0.33408231 0.04189438 S
atom_frac 0.96630523 0.33315188 0.01049855 S
atom_frac 0.83339716 0.46679363 0.02625500 W
atom_frac 0.96801191 0.53354288 0.04185194 S
atom_frac 0.96645304 0.53272762 0.01047244 S
atom_frac 0.83273927 0.66637410 0.02608810 W
atom_frac 0.96656426 0.73312998 0.04176587 S
atom_frac 0.96652812 0.73305824 0.01041507 S
atom_frac 0.83274204 0.86636962 0.02608806 W
atom_frac 0.96656450 0.93343479 0.04176593 S
atom_frac 0.96652844 0.93347061 0.01041499 S
