#
lattice_vector  25.22943032 0.00000000 0.00000000
lattice_vector  -12.61582776 21.84842672 0.00000000
lattice_vector  0.00000000 0.00000000 103.13796334
#
atom_frac 0.58356638 0.43686919 0.59695751 Mo
atom_frac 0.66689760 0.47852894 0.61216996 S
atom_frac 0.66689760 0.47852894 0.58174505 S
atom_frac 0.58356638 0.56186919 0.59695751 Mo
atom_frac 0.66689760 0.60352894 0.61216996 S
atom_frac 0.66689760 0.60352894 0.58174505 S
atom_frac 0.58356638 0.68686919 0.59695751 Mo
atom_frac 0.66689760 0.72852894 0.61216996 S
atom_frac 0.66689760 0.72852894 0.58174505 S
atom_frac 0.58356638 0.81186919 0.59695751 Mo
atom_frac 0.66689760 0.85352894 0.61216996 S
atom_frac 0.66689760 0.85352894 0.58174505 S
atom_frac 0.58356638 0.93686919 0.59695751 Mo
atom_frac 0.66689760 0.97852894 0.61216996 S
atom_frac 0.66689760 0.97852894 0.58174505 S
atom_frac 0.58356638 0.06186919 0.59695751 Mo
atom_frac 0.66689760 0.10352894 0.61216996 S
atom_frac 0.66689760 0.10352894 0.58174505 S
atom_frac 0.58356638 0.18686919 0.59695751 Mo
atom_frac 0.66689760 0.22852894 0.61216996 S
atom_frac 0.66689760 0.22852894 0.58174505 S
atom_frac 0.58356638 0.31186919 0.59695751 Mo
atom_frac 0.66689760 0.35352894 0.61216996 S
atom_frac 0.66689760 0.35352894 0.58174505 S
atom_frac 0.70856638 0.43686919 0.59695751 Mo
atom_frac 0.79189760 0.47852894 0.61216996 S
atom_frac 0.79189760 0.47852894 0.58174505 S
atom_frac 0.70856638 0.56186919 0.59695751 Mo
atom_frac 0.79189760 0.60352894 0.61216996 S
atom_frac 0.79189760 0.60352894 0.58174505 S
atom_frac 0.70856638 0.68686919 0.59695751 Mo
atom_frac 0.79189760 0.72852894 0.61216996 S
atom_frac 0.79189760 0.72852894 0.58174505 S
atom_frac 0.70856638 0.81186919 0.59695751 Mo
atom_frac 0.79189760 0.85352894 0.61216996 S
atom_frac 0.79189760 0.85352894 0.58174505 S
atom_frac 0.70856638 0.93686919 0.59695751 Mo
atom_frac 0.79189760 0.97852894 0.61216996 S
atom_frac 0.79189760 0.97852894 0.58174505 S
atom_frac 0.70856638 0.06186919 0.59695751 Mo
atom_frac 0.79189760 0.10352894 0.61216996 S
atom_frac 0.79189760 0.10352894 0.58174505 S
atom_frac 0.70856638 0.18686919 0.59695751 Mo
atom_frac 0.79189760 0.22852894 0.61216996 S
atom_frac 0.79189760 0.22852894 0.58174505 S
atom_frac 0.70856638 0.31186919 0.59695751 Mo
atom_frac 0.79189760 0.35352894 0.61216996 S
atom_frac 0.79189760 0.35352894 0.58174505 S
atom_frac 0.83356638 0.43686919 0.59695751 Mo
atom_frac 0.91689760 0.47852894 0.61216996 S
atom_frac 0.91689760 0.47852894 0.58174505 S
atom_frac 0.83356638 0.56186919 0.59695751 Mo
atom_frac 0.91689760 0.60352894 0.61216996 S
atom_frac 0.91689760 0.60352894 0.58174505 S
atom_frac 0.83356638 0.68686919 0.59695751 Mo
atom_frac 0.91689760 0.72852894 0.61216996 S
atom_frac 0.91689760 0.72852894 0.58174505 S
atom_frac 0.83356638 0.81186919 0.59695751 Mo
atom_frac 0.91689760 0.85352894 0.61216996 S
atom_frac 0.91689760 0.85352894 0.58174505 S
atom_frac 0.83356638 0.93686919 0.59695751 Mo
atom_frac 0.91689760 0.97852894 0.61216996 S
atom_frac 0.91689760 0.97852894 0.58174505 S
atom_frac 0.83356638 0.06186919 0.59695751 Mo
atom_frac 0.91689760 0.10352894 0.61216996 S
atom_frac 0.91689760 0.10352894 0.58174505 S
atom_frac 0.83356638 0.18686919 0.59695751 Mo
atom_frac 0.91689760 0.22852894 0.61216996 S
atom_frac 0.91689760 0.22852894 0.58174505 S
atom_frac 0.83356638 0.31186919 0.59695751 Mo
atom_frac 0.91689760 0.35352894 0.61216996 S
atom_frac 0.91689760 0.35352894 0.58174505 S
atom_frac 0.95856638 0.43686919 0.59695751 Mo
atom_frac 0.04189760 0.47852894 0.61216996 S
atom_frac 0.04189760 0.47852894 0.58174505 S
atom_frac 0.95856638 0.56186919 0.59695751 Mo
atom_frac 0.04189760 0.60352894 0.61216996 S
atom_frac 0.04189760 0.60352894 0.58174505 S
atom_frac 0.95856638 0.68686919 0.59695751 Mo
atom_frac 0.04189760 0.72852894 0.61216996 S
atom_frac 0.04189760 0.72852894 0.58174505 S
atom_frac 0.95856638 0.81186919 0.59695751 Mo
atom_frac 0.04189760 0.85352894 0.61216996 S
atom_frac 0.04189760 0.85352894 0.58174505 S
atom_frac 0.95856638 0.93686919 0.59695751 Mo
atom_frac 0.04189760 0.97852894 0.61216996 S
atom_frac 0.04189760 0.97852894 0.58174505 S
atom_frac 0.95856638 0.06186919 0.59695751 Mo
atom_frac 0.04189760 0.10352894 0.61216996 S
atom_frac 0.04189760 0.10352894 0.58174505 S
atom_frac 0.95856638 0.18686919 0.59695751 Mo
atom_frac 0.04189760 0.22852894 0.61216996 S
atom_frac 0.04189760 0.22852894 0.58174505 S
atom_frac 0.95856638 0.31186919 0.59695751 Mo
atom_frac 0.04189760 0.35352894 0.61216996 S
atom_frac 0.04189760 0.35352894 0.58174505 S
atom_frac 0.08356638 0.43686919 0.59695751 Mo
atom_frac 0.16689760 0.47852894 0.61216996 S
atom_frac 0.16689760 0.47852894 0.58174505 S
atom_frac 0.08356638 0.56186919 0.59695751 Mo
atom_frac 0.16689760 0.60352894 0.61216996 S
atom_frac 0.16689760 0.60352894 0.58174505 S
atom_frac 0.08356638 0.68686919 0.59695751 Mo
atom_frac 0.16689760 0.72852894 0.61216996 S
atom_frac 0.16689760 0.72852894 0.58174505 S
atom_frac 0.08356638 0.81186919 0.59695751 Mo
atom_frac 0.16689760 0.85352894 0.61216996 S
atom_frac 0.16689760 0.85352894 0.58174505 S
atom_frac 0.08356638 0.93686919 0.59695751 Mo
atom_frac 0.16689760 0.97852894 0.61216996 S
atom_frac 0.16689760 0.97852894 0.58174505 S
atom_frac 0.08356638 0.06186919 0.59695751 Mo
atom_frac 0.16689760 0.10352894 0.61216996 S
atom_frac 0.16689760 0.10352894 0.58174505 S
atom_frac 0.08356638 0.18686919 0.59695751 Mo
atom_frac 0.16689760 0.22852894 0.61216996 S
atom_frac 0.16689760 0.22852894 0.58174505 S
atom_frac 0.08356638 0.31186919 0.59695751 Mo
atom_frac 0.16689760 0.35352894 0.61216996 S
atom_frac 0.16689760 0.35352894 0.58174505 S
atom_frac 0.20856638 0.43686919 0.59695751 Mo
atom_frac 0.29189760 0.47852894 0.61216996 S
atom_frac 0.29189760 0.47852894 0.58174505 S
atom_frac 0.20856638 0.56186919 0.59695751 Mo
atom_frac 0.29189760 0.60352894 0.61216996 S
atom_frac 0.29189760 0.60352894 0.58174505 S
atom_frac 0.20856638 0.68686919 0.59695751 Mo
atom_frac 0.29189760 0.72852894 0.61216996 S
atom_frac 0.29189760 0.72852894 0.58174505 S
atom_frac 0.20856638 0.81186919 0.59695751 Mo
atom_frac 0.29189760 0.85352894 0.61216996 S
atom_frac 0.29189760 0.85352894 0.58174505 S
atom_frac 0.20856638 0.93686919 0.59695751 Mo
atom_frac 0.29189760 0.97852894 0.61216996 S
atom_frac 0.29189760 0.97852894 0.58174505 S
atom_frac 0.20856638 0.06186919 0.59695751 Mo
atom_frac 0.29189760 0.10352894 0.61216996 S
atom_frac 0.29189760 0.10352894 0.58174505 S
atom_frac 0.20856638 0.18686919 0.59695751 Mo
atom_frac 0.29189760 0.22852894 0.61216996 S
atom_frac 0.29189760 0.22852894 0.58174505 S
atom_frac 0.20856638 0.31186919 0.59695751 Mo
atom_frac 0.29189760 0.35352894 0.61216996 S
atom_frac 0.29189760 0.35352894 0.58174505 S
atom_frac 0.33356638 0.43686919 0.59695751 Mo
atom_frac 0.41689760 0.47852894 0.61216996 S
atom_frac 0.41689760 0.47852894 0.58174505 S
atom_frac 0.33356638 0.56186919 0.59695751 Mo
atom_frac 0.41689760 0.60352894 0.61216996 S
atom_frac 0.41689760 0.60352894 0.58174505 S
atom_frac 0.33356638 0.68686919 0.59695751 Mo
atom_frac 0.41689760 0.72852894 0.61216996 S
atom_frac 0.41689760 0.72852894 0.58174505 S
atom_frac 0.33356638 0.81186919 0.59695751 Mo
atom_frac 0.41689760 0.85352894 0.61216996 S
atom_frac 0.41689760 0.85352894 0.58174505 S
atom_frac 0.33356638 0.93686919 0.59695751 Mo
atom_frac 0.41689760 0.97852894 0.61216996 S
atom_frac 0.41689760 0.97852894 0.58174505 S
atom_frac 0.33356638 0.06186919 0.59695751 Mo
atom_frac 0.41689760 0.10352894 0.61216996 S
atom_frac 0.41689760 0.10352894 0.58174505 S
atom_frac 0.33356638 0.18686919 0.59695751 Mo
atom_frac 0.41689760 0.22852894 0.61216996 S
atom_frac 0.41689760 0.22852894 0.58174505 S
atom_frac 0.33356638 0.31186919 0.59695751 Mo
atom_frac 0.41689760 0.35352894 0.61216996 S
atom_frac 0.41689760 0.35352894 0.58174505 S
atom_frac 0.45856638 0.43686919 0.59695751 Mo
atom_frac 0.54189760 0.47852894 0.61216996 S
atom_frac 0.54189760 0.47852894 0.58174505 S
atom_frac 0.45856638 0.56186919 0.59695751 Mo
atom_frac 0.54189760 0.60352894 0.61216996 S
atom_frac 0.54189760 0.60352894 0.58174505 S
atom_frac 0.45856638 0.68686919 0.59695751 Mo
atom_frac 0.54189760 0.72852894 0.61216996 S
atom_frac 0.54189760 0.72852894 0.58174505 S
atom_frac 0.45856638 0.81186919 0.59695751 Mo
atom_frac 0.54189760 0.85352894 0.61216996 S
atom_frac 0.54189760 0.85352894 0.58174505 S
atom_frac 0.45856638 0.93686919 0.59695751 Mo
atom_frac 0.54189760 0.97852894 0.61216996 S
atom_frac 0.54189760 0.97852894 0.58174505 S
atom_frac 0.45856638 0.06186919 0.59695751 Mo
atom_frac 0.54189760 0.10352894 0.61216996 S
atom_frac 0.54189760 0.10352894 0.58174505 S
atom_frac 0.45856638 0.18686919 0.59695751 Mo
atom_frac 0.54189760 0.22852894 0.61216996 S
atom_frac 0.54189760 0.22852894 0.58174505 S
atom_frac 0.45856638 0.31186919 0.59695751 Mo
atom_frac 0.54189760 0.35352894 0.61216996 S
atom_frac 0.54189760 0.35352894 0.58174505 S
