#
lattice_vector  25.22943032 0.00000000 0.00000000
lattice_vector  12.61582776 21.84842672 0.00000000
lattice_vector  0.00000000 0.00000000 103.13796334
#
atom_frac 0.09641079 0.29955953 0.56787026 Mo
atom_frac 0.13807859 0.34121928 0.58308271 S
atom_frac 0.13807859 0.34121928 0.55265780 S
atom_frac 0.09641079 0.42455953 0.56787026 Mo
atom_frac 0.13807859 0.46621928 0.58308271 S
atom_frac 0.13807859 0.46621928 0.55265780 S
atom_frac 0.09641079 0.54955953 0.56787026 Mo
atom_frac 0.13807859 0.59121928 0.58308271 S
atom_frac 0.13807859 0.59121928 0.55265780 S
atom_frac 0.09641079 0.67455953 0.56787026 Mo
atom_frac 0.13807859 0.71621928 0.58308271 S
atom_frac 0.13807859 0.71621928 0.55265780 S
atom_frac 0.09641079 0.79955953 0.56787026 Mo
atom_frac 0.13807859 0.84121928 0.58308271 S
atom_frac 0.13807859 0.84121928 0.55265780 S
atom_frac 0.09641079 0.92455953 0.56787026 Mo
atom_frac 0.13807859 0.96621928 0.58308271 S
atom_frac 0.13807859 0.96621928 0.55265780 S
atom_frac 0.09641079 0.04955953 0.56787026 Mo
atom_frac 0.13807859 0.09121928 0.58308271 S
atom_frac 0.13807859 0.09121928 0.55265780 S
atom_frac 0.09641079 0.17455953 0.56787026 Mo
atom_frac 0.13807859 0.21621928 0.58308271 S
atom_frac 0.13807859 0.21621928 0.55265780 S
atom_frac 0.22141079 0.29955953 0.56787026 Mo
atom_frac 0.26307859 0.34121928 0.58308271 S
atom_frac 0.26307859 0.34121928 0.55265780 S
atom_frac 0.22141079 0.42455953 0.56787026 Mo
atom_frac 0.26307859 0.46621928 0.58308271 S
atom_frac 0.26307859 0.46621928 0.55265780 S
atom_frac 0.22141079 0.54955953 0.56787026 Mo
atom_frac 0.26307859 0.59121928 0.58308271 S
atom_frac 0.26307859 0.59121928 0.55265780 S
atom_frac 0.22141079 0.67455953 0.56787026 Mo
atom_frac 0.26307859 0.71621928 0.58308271 S
atom_frac 0.26307859 0.71621928 0.55265780 S
atom_frac 0.22141079 0.79955953 0.56787026 Mo
atom_frac 0.26307859 0.84121928 0.58308271 S
atom_frac 0.26307859 0.84121928 0.55265780 S
atom_frac 0.22141079 0.92455953 0.56787026 Mo
atom_frac 0.26307859 0.96621928 0.58308271 S
atom_frac 0.26307859 0.96621928 0.55265780 S
atom_frac 0.22141079 0.04955953 0.56787026 Mo
atom_frac 0.26307859 0.09121928 0.58308271 S
atom_frac 0.26307859 0.09121928 0.55265780 S
atom_frac 0.22141079 0.17455953 0.56787026 Mo
atom_frac 0.26307859 0.21621928 0.58308271 S
atom_frac 0.26307859 0.21621928 0.55265780 S
atom_frac 0.34641079 0.29955953 0.56787026 Mo
atom_frac 0.38807859 0.34121928 0.58308271 S
atom_frac 0.38807859 0.34121928 0.55265780 S
atom_frac 0.34641079 0.42455953 0.56787026 Mo
atom_frac 0.38807859 0.46621928 0.58308271 S
atom_frac 0.38807859 0.46621928 0.55265780 S
atom_frac 0.34641079 0.54955953 0.56787026 Mo
atom_frac 0.38807859 0.59121928 0.58308271 S
atom_frac 0.38807859 0.59121928 0.55265780 S
atom_frac 0.34641079 0.67455953 0.56787026 Mo
atom_frac 0.38807859 0.71621928 0.58308271 S
atom_frac 0.38807859 0.71621928 0.55265780 S
atom_frac 0.34641079 0.79955953 0.56787026 Mo
atom_frac 0.38807859 0.84121928 0.58308271 S
atom_frac 0.38807859 0.84121928 0.55265780 S
atom_frac 0.34641079 0.92455953 0.56787026 Mo
atom_frac 0.38807859 0.96621928 0.58308271 S
atom_frac 0.38807859 0.96621928 0.55265780 S
atom_frac 0.34641079 0.04955953 0.56787026 Mo
atom_frac 0.38807859 0.09121928 0.58308271 S
atom_frac 0.38807859 0.09121928 0.55265780 S
atom_frac 0.34641079 0.17455953 0.56787026 Mo
atom_frac 0.38807859 0.21621928 0.58308271 S
atom_frac 0.38807859 0.21621928 0.55265780 S
atom_frac 0.47141079 0.29955953 0.56787026 Mo
atom_frac 0.51307859 0.34121928 0.58308271 S
atom_frac 0.51307859 0.34121928 0.55265780 S
atom_frac 0.47141079 0.42455953 0.56787026 Mo
atom_frac 0.51307859 0.46621928 0.58308271 S
atom_frac 0.51307859 0.46621928 0.55265780 S
atom_frac 0.47141079 0.54955953 0.56787026 Mo
atom_frac 0.51307859 0.59121928 0.58308271 S
atom_frac 0.51307859 0.59121928 0.55265780 S
atom_frac 0.47141079 0.67455953 0.56787026 Mo
atom_frac 0.51307859 0.71621928 0.58308271 S
atom_frac 0.51307859 0.71621928 0.55265780 S
atom_frac 0.47141079 0.79955953 0.56787026 Mo
atom_frac 0.51307859 0.84121928 0.58308271 S
atom_frac 0.51307859 0.84121928 0.55265780 S
atom_frac 0.47141079 0.92455953 0.56787026 Mo
atom_frac 0.51307859 0.96621928 0.58308271 S
atom_frac 0.51307859 0.96621928 0.55265780 S
atom_frac 0.47141079 0.04955953 0.56787026 Mo
atom_frac 0.51307859 0.09121928 0.58308271 S
atom_frac 0.51307859 0.09121928 0.55265780 S
atom_frac 0.47141079 0.17455953 0.56787026 Mo
atom_frac 0.51307859 0.21621928 0.58308271 S
atom_frac 0.51307859 0.21621928 0.55265780 S
atom_frac 0.59641079 0.29955953 0.56787026 Mo
atom_frac 0.63807859 0.34121928 0.58308271 S
atom_frac 0.63807859 0.34121928 0.55265780 S
atom_frac 0.59641079 0.42455953 0.56787026 Mo
atom_frac 0.63807859 0.46621928 0.58308271 S
atom_frac 0.63807859 0.46621928 0.55265780 S
atom_frac 0.59641079 0.54955953 0.56787026 Mo
atom_frac 0.63807859 0.59121928 0.58308271 S
atom_frac 0.63807859 0.59121928 0.55265780 S
atom_frac 0.59641079 0.67455953 0.56787026 Mo
atom_frac 0.63807859 0.71621928 0.58308271 S
atom_frac 0.63807859 0.71621928 0.55265780 S
atom_frac 0.59641079 0.79955953 0.56787026 Mo
atom_frac 0.63807859 0.84121928 0.58308271 S
atom_frac 0.63807859 0.84121928 0.55265780 S
atom_frac 0.59641079 0.92455953 0.56787026 Mo
atom_frac 0.63807859 0.96621928 0.58308271 S
atom_frac 0.63807859 0.96621928 0.55265780 S
atom_frac 0.59641079 0.04955953 0.56787026 Mo
atom_frac 0.63807859 0.09121928 0.58308271 S
atom_frac 0.63807859 0.09121928 0.55265780 S
atom_frac 0.59641079 0.17455953 0.56787026 Mo
atom_frac 0.63807859 0.21621928 0.58308271 S
atom_frac 0.63807859 0.21621928 0.55265780 S
atom_frac 0.72141079 0.29955953 0.56787026 Mo
atom_frac 0.76307859 0.34121928 0.58308271 S
atom_frac 0.76307859 0.34121928 0.55265780 S
atom_frac 0.72141079 0.42455953 0.56787026 Mo
atom_frac 0.76307859 0.46621928 0.58308271 S
atom_frac 0.76307859 0.46621928 0.55265780 S
atom_frac 0.72141079 0.54955953 0.56787026 Mo
atom_frac 0.76307859 0.59121928 0.58308271 S
atom_frac 0.76307859 0.59121928 0.55265780 S
atom_frac 0.72141079 0.67455953 0.56787026 Mo
atom_frac 0.76307859 0.71621928 0.58308271 S
atom_frac 0.76307859 0.71621928 0.55265780 S
atom_frac 0.72141079 0.79955953 0.56787026 Mo
atom_frac 0.76307859 0.84121928 0.58308271 S
atom_frac 0.76307859 0.84121928 0.55265780 S
atom_frac 0.72141079 0.92455953 0.56787026 Mo
atom_frac 0.76307859 0.96621928 0.58308271 S
atom_frac 0.76307859 0.96621928 0.55265780 S
atom_frac 0.72141079 0.04955953 0.56787026 Mo
atom_frac 0.76307859 0.09121928 0.58308271 S
atom_frac 0.76307859 0.09121928 0.55265780 S
atom_frac 0.72141079 0.17455953 0.56787026 Mo
atom_frac 0.76307859 0.21621928 0.58308271 S
atom_frac 0.76307859 0.21621928 0.55265780 S
atom_frac 0.84641079 0.29955953 0.56787026 Mo
atom_frac 0.88807859 0.34121928 0.58308271 S
atom_frac 0.88807859 0.34121928 0.55265780 S
atom_frac 0.84641079 0.42455953 0.56787026 Mo
atom_frac 0.88807859 0.46621928 0.58308271 S
atom_frac 0.88807859 0.46621928 0.55265780 S
atom_frac 0.84641079 0.54955953 0.56787026 Mo
atom_frac 0.88807859 0.59121928 0.58308271 S
atom_frac 0.88807859 0.59121928 0.55265780 S
atom_frac 0.84641079 0.67455953 0.56787026 Mo
atom_frac 0.88807859 0.71621928 0.58308271 S
atom_frac 0.88807859 0.71621928 0.55265780 S
atom_frac 0.84641079 0.79955953 0.56787026 Mo
atom_frac 0.88807859 0.84121928 0.58308271 S
atom_frac 0.88807859 0.84121928 0.55265780 S
atom_frac 0.84641079 0.92455953 0.56787026 Mo
atom_frac 0.88807859 0.96621928 0.58308271 S
atom_frac 0.88807859 0.96621928 0.55265780 S
atom_frac 0.84641079 0.04955953 0.56787026 Mo
atom_frac 0.88807859 0.09121928 0.58308271 S
atom_frac 0.88807859 0.09121928 0.55265780 S
atom_frac 0.84641079 0.17455953 0.56787026 Mo
atom_frac 0.88807859 0.21621928 0.58308271 S
atom_frac 0.88807859 0.21621928 0.55265780 S
atom_frac 0.97141079 0.29955953 0.56787026 Mo
atom_frac 0.01307859 0.34121928 0.58308271 S
atom_frac 0.01307859 0.34121928 0.55265780 S
atom_frac 0.97141079 0.42455953 0.56787026 Mo
atom_frac 0.01307859 0.46621928 0.58308271 S
atom_frac 0.01307859 0.46621928 0.55265780 S
atom_frac 0.97141079 0.54955953 0.56787026 Mo
atom_frac 0.01307859 0.59121928 0.58308271 S
atom_frac 0.01307859 0.59121928 0.55265780 S
atom_frac 0.97141079 0.67455953 0.56787026 Mo
atom_frac 0.01307859 0.71621928 0.58308271 S
atom_frac 0.01307859 0.71621928 0.55265780 S
atom_frac 0.97141079 0.79955953 0.56787026 Mo
atom_frac 0.01307859 0.84121928 0.58308271 S
atom_frac 0.01307859 0.84121928 0.55265780 S
atom_frac 0.97141079 0.92455953 0.56787026 Mo
atom_frac 0.01307859 0.96621928 0.58308271 S
atom_frac 0.01307859 0.96621928 0.55265780 S
atom_frac 0.97141079 0.04955953 0.56787026 Mo
atom_frac 0.01307859 0.09121928 0.58308271 S
atom_frac 0.01307859 0.09121928 0.55265780 S
atom_frac 0.97141079 0.17455953 0.56787026 Mo
atom_frac 0.01307859 0.21621928 0.58308271 S
atom_frac 0.01307859 0.21621928 0.55265780 S
