#=======================================================
# FHI-aims file: geometry_supercell.in
# Created using the Atomic Simulation Environment (ASE)
# Wed Jan 26 10:56:56 2022
#=======================================================
lattice_vector 26.2833157374245516 0.0000000000000000 0.0000000000000000 
lattice_vector 13.1416578687122758 22.7620191242969838 0.0000000000000000 
lattice_vector 0.0000000000000000 0.0000000000000000 107.1534124783503472 
atom 0.0000000000000000 0.0000000000000000 49.9999999999999929 Au
atom 2.9203684152693943 0.0000000000000000 49.9999999999999929 Au
atom 5.8407368305387886 0.0000000000000000 49.9999999999999929 Au
atom 8.7611052458081833 0.0000000000000000 49.9999999999999929 Au
atom 11.6814736610775771 0.0000000000000000 49.9999999999999929 Au
atom 14.6018420763469710 0.0000000000000000 49.9999999999999929 Au
atom 17.5222104916163666 0.0000000000000000 49.9999999999999929 Au
atom 20.4425789068857604 0.0000000000000000 49.9999999999999929 Au
atom 23.3629473221551542 0.0000000000000000 49.9999999999999929 Au
atom 1.4601842076346971 2.5291132360329982 49.9999999999999929 Au
atom 4.3805526229040916 2.5291132360329982 49.9999999999999929 Au
atom 7.3009210381734855 2.5291132360329982 49.9999999999999929 Au
atom 10.2212894534428802 2.5291132360329982 49.9999999999999929 Au
atom 13.1416578687122740 2.5291132360329982 49.9999999999999929 Au
atom 16.0620262839816696 2.5291132360329982 49.9999999999999929 Au
atom 18.9823946992510635 2.5291132360329982 49.9999999999999929 Au
atom 21.9027631145204573 2.5291132360329982 49.9999999999999929 Au
atom 24.8231315297898512 2.5291132360329982 49.9999999999999929 Au
atom 2.9203684152693943 5.0582264720659964 49.9999999999999929 Au
atom 5.8407368305387886 5.0582264720659964 49.9999999999999929 Au
atom 8.7611052458081833 5.0582264720659964 49.9999999999999929 Au
atom 11.6814736610775771 5.0582264720659964 49.9999999999999929 Au
atom 14.6018420763469710 5.0582264720659964 49.9999999999999929 Au
atom 17.5222104916163666 5.0582264720659964 49.9999999999999929 Au
atom 20.4425789068857604 5.0582264720659964 49.9999999999999929 Au
atom 23.3629473221551542 5.0582264720659964 49.9999999999999929 Au
atom 26.2833157374245481 5.0582264720659964 49.9999999999999929 Au
atom 4.3805526229040916 7.5873397080989946 49.9999999999999929 Au
atom 7.3009210381734855 7.5873397080989946 49.9999999999999929 Au
atom 10.2212894534428802 7.5873397080989946 49.9999999999999929 Au
atom 13.1416578687122740 7.5873397080989946 49.9999999999999929 Au
atom 16.0620262839816696 7.5873397080989946 49.9999999999999929 Au
atom 18.9823946992510635 7.5873397080989946 49.9999999999999929 Au
atom 21.9027631145204573 7.5873397080989946 49.9999999999999929 Au
atom 24.8231315297898512 7.5873397080989946 49.9999999999999929 Au
atom 27.7434999450592450 7.5873397080989946 49.9999999999999929 Au
atom 5.8407368305387886 10.1164529441319928 49.9999999999999929 Au
atom 8.7611052458081833 10.1164529441319928 49.9999999999999929 Au
atom 11.6814736610775771 10.1164529441319928 49.9999999999999929 Au
atom 14.6018420763469727 10.1164529441319928 49.9999999999999929 Au
atom 17.5222104916163666 10.1164529441319928 49.9999999999999929 Au
atom 20.4425789068857604 10.1164529441319928 49.9999999999999929 Au
atom 23.3629473221551542 10.1164529441319928 49.9999999999999929 Au
atom 26.2833157374245481 10.1164529441319928 49.9999999999999929 Au
atom 29.2036841526939419 10.1164529441319928 49.9999999999999929 Au
atom 7.3009210381734855 12.6455661801649910 49.9999999999999929 Au
atom 10.2212894534428802 12.6455661801649910 49.9999999999999929 Au
atom 13.1416578687122740 12.6455661801649910 49.9999999999999929 Au
atom 16.0620262839816696 12.6455661801649910 49.9999999999999929 Au
atom 18.9823946992510635 12.6455661801649910 49.9999999999999929 Au
atom 21.9027631145204573 12.6455661801649910 49.9999999999999929 Au
atom 24.8231315297898512 12.6455661801649910 49.9999999999999929 Au
atom 27.7434999450592450 12.6455661801649910 49.9999999999999929 Au
atom 30.6638683603286388 12.6455661801649910 49.9999999999999929 Au
atom 8.7611052458081833 15.1746794161979892 49.9999999999999929 Au
atom 11.6814736610775771 15.1746794161979892 49.9999999999999929 Au
atom 14.6018420763469710 15.1746794161979892 49.9999999999999929 Au
atom 17.5222104916163666 15.1746794161979892 49.9999999999999929 Au
atom 20.4425789068857604 15.1746794161979892 49.9999999999999929 Au
atom 23.3629473221551542 15.1746794161979892 49.9999999999999929 Au
atom 26.2833157374245481 15.1746794161979892 49.9999999999999929 Au
atom 29.2036841526939419 15.1746794161979892 49.9999999999999929 Au
atom 32.1240525679633393 15.1746794161979892 49.9999999999999929 Au
atom 10.2212894534428802 17.7037926522309874 49.9999999999999929 Au
atom 13.1416578687122740 17.7037926522309874 49.9999999999999929 Au
atom 16.0620262839816696 17.7037926522309874 49.9999999999999929 Au
atom 18.9823946992510635 17.7037926522309874 49.9999999999999929 Au
atom 21.9027631145204573 17.7037926522309874 49.9999999999999929 Au
atom 24.8231315297898512 17.7037926522309874 49.9999999999999929 Au
atom 27.7434999450592450 17.7037926522309874 49.9999999999999929 Au
atom 30.6638683603286388 17.7037926522309874 49.9999999999999929 Au
atom 33.5842367755980362 17.7037926522309874 49.9999999999999929 Au
atom 11.6814736610775771 20.2329058882639856 49.9999999999999929 Au
atom 14.6018420763469710 20.2329058882639856 49.9999999999999929 Au
atom 17.5222104916163666 20.2329058882639856 49.9999999999999929 Au
atom 20.4425789068857604 20.2329058882639856 49.9999999999999929 Au
atom 23.3629473221551542 20.2329058882639856 49.9999999999999929 Au
atom 26.2833157374245481 20.2329058882639856 49.9999999999999929 Au
atom 29.2036841526939455 20.2329058882639856 49.9999999999999929 Au
atom 32.1240525679633393 20.2329058882639856 49.9999999999999929 Au
atom 35.0444209832327331 20.2329058882639856 49.9999999999999929 Au
atom 1.4601842076346971 0.8430377453443327 52.3844708261167753 Au
atom 4.3805526229040916 0.8430377453443327 52.3844708261167753 Au
atom 7.3009210381734864 0.8430377453443327 52.3844708261167753 Au
atom 10.2212894534428802 0.8430377453443327 52.3844708261167753 Au
atom 13.1416578687122740 0.8430377453443327 52.3844708261167753 Au
atom 16.0620262839816696 0.8430377453443327 52.3844708261167753 Au
atom 18.9823946992510635 0.8430377453443327 52.3844708261167753 Au
atom 21.9027631145204573 0.8430377453443327 52.3844708261167753 Au
atom 24.8231315297898547 0.8430377453443327 52.3844708261167753 Au
atom 2.9203684152693943 3.3721509813773309 52.3844708261167753 Au
atom 5.8407368305387886 3.3721509813773309 52.3844708261167753 Au
atom 8.7611052458081833 3.3721509813773309 52.3844708261167753 Au
atom 11.6814736610775771 3.3721509813773309 52.3844708261167753 Au
atom 14.6018420763469710 3.3721509813773309 52.3844708261167753 Au
atom 17.5222104916163666 3.3721509813773309 52.3844708261167753 Au
atom 20.4425789068857604 3.3721509813773309 52.3844708261167753 Au
atom 23.3629473221551542 3.3721509813773309 52.3844708261167753 Au
atom 26.2833157374245516 3.3721509813773309 52.3844708261167753 Au
atom 4.3805526229040916 5.9012642174103291 52.3844708261167753 Au
atom 7.3009210381734855 5.9012642174103291 52.3844708261167753 Au
atom 10.2212894534428802 5.9012642174103291 52.3844708261167753 Au
atom 13.1416578687122740 5.9012642174103291 52.3844708261167753 Au
atom 16.0620262839816696 5.9012642174103291 52.3844708261167753 Au
atom 18.9823946992510635 5.9012642174103291 52.3844708261167753 Au
atom 21.9027631145204573 5.9012642174103291 52.3844708261167753 Au
atom 24.8231315297898512 5.9012642174103291 52.3844708261167753 Au
atom 27.7434999450592485 5.9012642174103291 52.3844708261167753 Au
atom 5.8407368305387886 8.4303774534433273 52.3844708261167753 Au
atom 8.7611052458081833 8.4303774534433273 52.3844708261167753 Au
atom 11.6814736610775789 8.4303774534433273 52.3844708261167753 Au
atom 14.6018420763469727 8.4303774534433273 52.3844708261167753 Au
atom 17.5222104916163666 8.4303774534433273 52.3844708261167753 Au
atom 20.4425789068857604 8.4303774534433273 52.3844708261167753 Au
atom 23.3629473221551542 8.4303774534433273 52.3844708261167753 Au
atom 26.2833157374245481 8.4303774534433273 52.3844708261167753 Au
atom 29.2036841526939455 8.4303774534433273 52.3844708261167753 Au
atom 7.3009210381734855 10.9594906894763255 52.3844708261167753 Au
atom 10.2212894534428802 10.9594906894763255 52.3844708261167753 Au
atom 13.1416578687122740 10.9594906894763255 52.3844708261167753 Au
atom 16.0620262839816696 10.9594906894763255 52.3844708261167753 Au
atom 18.9823946992510635 10.9594906894763255 52.3844708261167753 Au
atom 21.9027631145204573 10.9594906894763255 52.3844708261167753 Au
atom 24.8231315297898512 10.9594906894763255 52.3844708261167753 Au
atom 27.7434999450592450 10.9594906894763255 52.3844708261167753 Au
atom 30.6638683603286424 10.9594906894763255 52.3844708261167753 Au
atom 8.7611052458081815 13.4886039255093237 52.3844708261167753 Au
atom 11.6814736610775771 13.4886039255093237 52.3844708261167753 Au
atom 14.6018420763469710 13.4886039255093237 52.3844708261167753 Au
atom 17.5222104916163666 13.4886039255093237 52.3844708261167753 Au
atom 20.4425789068857604 13.4886039255093237 52.3844708261167753 Au
atom 23.3629473221551542 13.4886039255093237 52.3844708261167753 Au
atom 26.2833157374245481 13.4886039255093237 52.3844708261167753 Au
atom 29.2036841526939419 13.4886039255093237 52.3844708261167753 Au
atom 32.1240525679633393 13.4886039255093237 52.3844708261167753 Au
atom 10.2212894534428802 16.0177171615423219 52.3844708261167753 Au
atom 13.1416578687122740 16.0177171615423219 52.3844708261167753 Au
atom 16.0620262839816696 16.0177171615423219 52.3844708261167753 Au
atom 18.9823946992510635 16.0177171615423219 52.3844708261167753 Au
atom 21.9027631145204573 16.0177171615423219 52.3844708261167753 Au
atom 24.8231315297898512 16.0177171615423219 52.3844708261167753 Au
atom 27.7434999450592450 16.0177171615423219 52.3844708261167753 Au
atom 30.6638683603286388 16.0177171615423219 52.3844708261167753 Au
atom 33.5842367755980362 16.0177171615423219 52.3844708261167753 Au
atom 11.6814736610775771 18.5468303975753201 52.3844708261167753 Au
atom 14.6018420763469710 18.5468303975753201 52.3844708261167753 Au
atom 17.5222104916163666 18.5468303975753201 52.3844708261167753 Au
atom 20.4425789068857604 18.5468303975753201 52.3844708261167753 Au
atom 23.3629473221551542 18.5468303975753201 52.3844708261167753 Au
atom 26.2833157374245481 18.5468303975753201 52.3844708261167753 Au
atom 29.2036841526939419 18.5468303975753201 52.3844708261167753 Au
atom 32.1240525679633393 18.5468303975753201 52.3844708261167753 Au
atom 35.0444209832327331 18.5468303975753201 52.3844708261167753 Au
atom 13.1416578687122758 21.0759436336083184 52.3844708261167753 Au
atom 16.0620262839816696 21.0759436336083184 52.3844708261167753 Au
atom 18.9823946992510635 21.0759436336083184 52.3844708261167753 Au
atom 21.9027631145204573 21.0759436336083184 52.3844708261167753 Au
atom 24.8231315297898512 21.0759436336083184 52.3844708261167753 Au
atom 27.7434999450592450 21.0759436336083184 52.3844708261167753 Au
atom 30.6638683603286424 21.0759436336083184 52.3844708261167753 Au
atom 33.5842367755980362 21.0759436336083184 52.3844708261167753 Au
atom 36.5046051908674301 21.0759436336083184 52.3844708261167753 Au
atom -0.0000000000000000 1.6860754906886655 54.7689416522335577 Au
atom 2.9203684152693943 1.6860754906886655 54.7689416522335577 Au
atom 5.8407368305387886 1.6860754906886655 54.7689416522335577 Au
atom 8.7611052458081833 1.6860754906886655 54.7689416522335577 Au
atom 11.6814736610775771 1.6860754906886655 54.7689416522335577 Au
atom 14.6018420763469727 1.6860754906886655 54.7689416522335577 Au
atom 17.5222104916163666 1.6860754906886655 54.7689416522335577 Au
atom 20.4425789068857604 1.6860754906886655 54.7689416522335577 Au
atom 23.3629473221551542 1.6860754906886655 54.7689416522335577 Au
atom 1.4601842076346969 4.2151887267216637 54.7689416522335577 Au
atom 4.3805526229040916 4.2151887267216637 54.7689416522335577 Au
atom 7.3009210381734855 4.2151887267216637 54.7689416522335577 Au
atom 10.2212894534428802 4.2151887267216637 54.7689416522335577 Au
atom 13.1416578687122740 4.2151887267216637 54.7689416522335577 Au
atom 16.0620262839816696 4.2151887267216637 54.7689416522335577 Au
atom 18.9823946992510635 4.2151887267216637 54.7689416522335577 Au
atom 21.9027631145204573 4.2151887267216637 54.7689416522335577 Au
atom 24.8231315297898512 4.2151887267216637 54.7689416522335577 Au
atom 2.9203684152693943 6.7443019627546619 54.7689416522335577 Au
atom 5.8407368305387886 6.7443019627546619 54.7689416522335577 Au
atom 8.7611052458081833 6.7443019627546619 54.7689416522335577 Au
atom 11.6814736610775771 6.7443019627546619 54.7689416522335577 Au
atom 14.6018420763469710 6.7443019627546619 54.7689416522335577 Au
atom 17.5222104916163666 6.7443019627546619 54.7689416522335577 Au
atom 20.4425789068857604 6.7443019627546619 54.7689416522335577 Au
atom 23.3629473221551542 6.7443019627546619 54.7689416522335577 Au
atom 26.2833157374245481 6.7443019627546619 54.7689416522335577 Au
atom 4.3805526229040916 9.2734151987876601 54.7689416522335577 Au
atom 7.3009210381734855 9.2734151987876601 54.7689416522335577 Au
atom 10.2212894534428802 9.2734151987876601 54.7689416522335577 Au
atom 13.1416578687122740 9.2734151987876601 54.7689416522335577 Au
atom 16.0620262839816696 9.2734151987876601 54.7689416522335577 Au
atom 18.9823946992510635 9.2734151987876601 54.7689416522335577 Au
atom 21.9027631145204573 9.2734151987876601 54.7689416522335577 Au
atom 24.8231315297898512 9.2734151987876601 54.7689416522335577 Au
atom 27.7434999450592450 9.2734151987876601 54.7689416522335577 Au
atom 5.8407368305387894 11.8025284348206583 54.7689416522335577 Au
atom 8.7611052458081833 11.8025284348206583 54.7689416522335577 Au
atom 11.6814736610775771 11.8025284348206583 54.7689416522335577 Au
atom 14.6018420763469710 11.8025284348206583 54.7689416522335577 Au
atom 17.5222104916163666 11.8025284348206583 54.7689416522335577 Au
atom 20.4425789068857604 11.8025284348206583 54.7689416522335577 Au
atom 23.3629473221551542 11.8025284348206583 54.7689416522335577 Au
atom 26.2833157374245481 11.8025284348206583 54.7689416522335577 Au
atom 29.2036841526939419 11.8025284348206583 54.7689416522335577 Au
atom 7.3009210381734864 14.3316416708536565 54.7689416522335577 Au
atom 10.2212894534428802 14.3316416708536565 54.7689416522335577 Au
atom 13.1416578687122740 14.3316416708536565 54.7689416522335577 Au
atom 16.0620262839816696 14.3316416708536565 54.7689416522335577 Au
atom 18.9823946992510635 14.3316416708536565 54.7689416522335577 Au
atom 21.9027631145204573 14.3316416708536565 54.7689416522335577 Au
atom 24.8231315297898512 14.3316416708536565 54.7689416522335577 Au
atom 27.7434999450592450 14.3316416708536565 54.7689416522335577 Au
atom 30.6638683603286388 14.3316416708536565 54.7689416522335577 Au
atom 8.7611052458081833 16.8607549068866547 54.7689416522335577 Au
atom 11.6814736610775771 16.8607549068866547 54.7689416522335577 Au
atom 14.6018420763469727 16.8607549068866547 54.7689416522335577 Au
atom 17.5222104916163666 16.8607549068866547 54.7689416522335577 Au
atom 20.4425789068857604 16.8607549068866547 54.7689416522335577 Au
atom 23.3629473221551578 16.8607549068866547 54.7689416522335577 Au
atom 26.2833157374245516 16.8607549068866547 54.7689416522335577 Au
atom 29.2036841526939455 16.8607549068866547 54.7689416522335577 Au
atom 32.1240525679633393 16.8607549068866547 54.7689416522335577 Au
atom 10.2212894534428802 19.3898681429196529 54.7689416522335577 Au
atom 13.1416578687122740 19.3898681429196529 54.7689416522335577 Au
atom 16.0620262839816696 19.3898681429196529 54.7689416522335577 Au
atom 18.9823946992510635 19.3898681429196529 54.7689416522335577 Au
atom 21.9027631145204573 19.3898681429196529 54.7689416522335577 Au
atom 24.8231315297898547 19.3898681429196529 54.7689416522335577 Au
atom 27.7434999450592485 19.3898681429196529 54.7689416522335577 Au
atom 30.6638683603286424 19.3898681429196529 54.7689416522335577 Au
atom 33.5842367755980362 19.3898681429196529 54.7689416522335577 Au
atom 11.6814736610775771 21.9189813789526511 54.7689416522335577 Au
atom 14.6018420763469710 21.9189813789526511 54.7689416522335577 Au
atom 17.5222104916163666 21.9189813789526511 54.7689416522335577 Au
atom 20.4425789068857604 21.9189813789526511 54.7689416522335577 Au
atom 23.3629473221551542 21.9189813789526511 54.7689416522335577 Au
atom 26.2833157374245481 21.9189813789526511 54.7689416522335577 Au
atom 29.2036841526939419 21.9189813789526511 54.7689416522335577 Au
atom 32.1240525679633393 21.9189813789526511 54.7689416522335577 Au
atom 35.0444209832327331 21.9189813789526511 54.7689416522335577 Au
atom 0.0000000000000000 0.0000000000000000 57.1534124783503401 Au
atom 2.9203684152693943 0.0000000000000000 57.1534124783503401 Au
atom 5.8407368305387886 0.0000000000000000 57.1534124783503401 Au
atom 8.7611052458081833 0.0000000000000000 57.1534124783503401 Au
atom 11.6814736610775771 0.0000000000000000 57.1534124783503401 Au
atom 14.6018420763469710 0.0000000000000000 57.1534124783503401 Au
atom 17.5222104916163666 0.0000000000000000 57.1534124783503401 Au
atom 20.4425789068857604 0.0000000000000000 57.1534124783503401 Au
atom 23.3629473221551542 0.0000000000000000 57.1534124783503401 Au
atom 1.4601842076346971 2.5291132360329982 57.1534124783503401 Au
atom 4.3805526229040916 2.5291132360329982 57.1534124783503401 Au
atom 7.3009210381734855 2.5291132360329982 57.1534124783503401 Au
atom 10.2212894534428802 2.5291132360329982 57.1534124783503401 Au
atom 13.1416578687122740 2.5291132360329982 57.1534124783503401 Au
atom 16.0620262839816696 2.5291132360329982 57.1534124783503401 Au
atom 18.9823946992510635 2.5291132360329982 57.1534124783503401 Au
atom 21.9027631145204573 2.5291132360329982 57.1534124783503401 Au
atom 24.8231315297898512 2.5291132360329982 57.1534124783503401 Au
atom 2.9203684152693943 5.0582264720659964 57.1534124783503401 Au
atom 5.8407368305387886 5.0582264720659964 57.1534124783503401 Au
atom 8.7611052458081833 5.0582264720659964 57.1534124783503401 Au
atom 11.6814736610775771 5.0582264720659964 57.1534124783503401 Au
atom 14.6018420763469710 5.0582264720659964 57.1534124783503401 Au
atom 17.5222104916163666 5.0582264720659964 57.1534124783503401 Au
atom 20.4425789068857604 5.0582264720659964 57.1534124783503401 Au
atom 23.3629473221551542 5.0582264720659964 57.1534124783503401 Au
atom 26.2833157374245481 5.0582264720659964 57.1534124783503401 Au
atom 4.3805526229040916 7.5873397080989946 57.1534124783503401 Au
atom 7.3009210381734855 7.5873397080989946 57.1534124783503401 Au
atom 10.2212894534428802 7.5873397080989946 57.1534124783503401 Au
atom 13.1416578687122740 7.5873397080989946 57.1534124783503401 Au
atom 16.0620262839816696 7.5873397080989946 57.1534124783503401 Au
atom 18.9823946992510635 7.5873397080989946 57.1534124783503401 Au
atom 21.9027631145204573 7.5873397080989946 57.1534124783503401 Au
atom 24.8231315297898512 7.5873397080989946 57.1534124783503401 Au
atom 27.7434999450592450 7.5873397080989946 57.1534124783503401 Au
atom 5.8407368305387886 10.1164529441319928 57.1534124783503401 Au
atom 8.7611052458081833 10.1164529441319928 57.1534124783503401 Au
atom 11.6814736610775771 10.1164529441319928 57.1534124783503401 Au
atom 14.6018420763469727 10.1164529441319928 57.1534124783503401 Au
atom 17.5222104916163666 10.1164529441319928 57.1534124783503401 Au
atom 20.4425789068857604 10.1164529441319928 57.1534124783503401 Au
atom 23.3629473221551542 10.1164529441319928 57.1534124783503401 Au
atom 26.2833157374245481 10.1164529441319928 57.1534124783503401 Au
atom 29.2036841526939419 10.1164529441319928 57.1534124783503401 Au
atom 7.3009210381734855 12.6455661801649910 57.1534124783503401 Au
atom 10.2212894534428802 12.6455661801649910 57.1534124783503401 Au
atom 13.1416578687122740 12.6455661801649910 57.1534124783503401 Au
atom 16.0620262839816696 12.6455661801649910 57.1534124783503401 Au
atom 18.9823946992510635 12.6455661801649910 57.1534124783503401 Au
atom 21.9027631145204573 12.6455661801649910 57.1534124783503401 Au
atom 24.8231315297898512 12.6455661801649910 57.1534124783503401 Au
atom 27.7434999450592450 12.6455661801649910 57.1534124783503401 Au
atom 30.6638683603286388 12.6455661801649910 57.1534124783503401 Au
atom 8.7611052458081833 15.1746794161979892 57.1534124783503401 Au
atom 11.6814736610775771 15.1746794161979892 57.1534124783503401 Au
atom 14.6018420763469710 15.1746794161979892 57.1534124783503401 Au
atom 17.5222104916163666 15.1746794161979892 57.1534124783503401 Au
atom 20.4425789068857604 15.1746794161979892 57.1534124783503401 Au
atom 23.3629473221551542 15.1746794161979892 57.1534124783503401 Au
atom 26.2833157374245481 15.1746794161979892 57.1534124783503401 Au
atom 29.2036841526939419 15.1746794161979892 57.1534124783503401 Au
atom 32.1240525679633393 15.1746794161979892 57.1534124783503401 Au
atom 10.2212894534428802 17.7037926522309874 57.1534124783503401 Au
atom 13.1416578687122740 17.7037926522309874 57.1534124783503401 Au
atom 16.0620262839816696 17.7037926522309874 57.1534124783503401 Au
atom 18.9823946992510635 17.7037926522309874 57.1534124783503401 Au
atom 21.9027631145204573 17.7037926522309874 57.1534124783503401 Au
atom 24.8231315297898512 17.7037926522309874 57.1534124783503401 Au
atom 27.7434999450592450 17.7037926522309874 57.1534124783503401 Au
atom 30.6638683603286388 17.7037926522309874 57.1534124783503401 Au
atom 33.5842367755980362 17.7037926522309874 57.1534124783503401 Au
atom 11.6814736610775771 20.2329058882639856 57.1534124783503401 Au
atom 14.6018420763469710 20.2329058882639856 57.1534124783503401 Au
atom 17.5222104916163666 20.2329058882639856 57.1534124783503401 Au
atom 20.4425789068857604 20.2329058882639856 57.1534124783503401 Au
atom 23.3629473221551542 20.2329058882639856 57.1534124783503401 Au
atom 26.2833157374245481 20.2329058882639856 57.1534124783503401 Au
atom 29.2036841526939455 20.2329058882639856 57.1534124783503401 Au
atom 32.1240525679633393 20.2329058882639856 57.1534124783503401 Au
atom 35.0444209832327331 20.2329058882639856 57.1534124783503401 Au
