#=======================================================
# FHI-aims file: geometry_2.in
# Created using the Atomic Simulation Environment (ASE)
# Tue Jan 25 10:15:42 2022
#=======================================================
lattice_vector 25.2294303199999987 -0.0014912800000000 0.0000000000000000 
lattice_vector -12.6158277600000002 21.8484267199999991 0.0000000000000000 
lattice_vector 0.0000000000000000 0.0000000000000000 103.1379633399999989 
atom 11.8251833300000015 21.3918398900000000 51.5689816699999923 Mo
atom 0.7884078700000000 0.4551044799999999 53.1379633399999989 S
atom 0.7884078700000000 0.4551044799999999 49.9999999999999929 S
atom 22.8640326200000032 2.2744665099999994 51.5689816699999923 Mo
atom -0.7885705999999998 3.1861578199999996 53.1379633399999989 S
atom -0.7885705999999998 3.1861578199999996 49.9999999999999929 S
atom 21.2870541500000030 5.0055198499999998 51.5689816699999923 Mo
atom -2.3655490700000001 5.9172111599999999 53.1379633399999989 S
atom -2.3655490700000001 5.9172111599999999 49.9999999999999929 S
atom 19.7100756800000028 7.7365731899999997 51.5689816699999923 Mo
atom -3.9425275399999999 8.6482644999999998 53.1379633399999989 S
atom -3.9425275399999999 8.6482644999999998 49.9999999999999929 S
atom 18.1330972100000025 10.4676265300000004 51.5689816699999923 Mo
atom -5.5195060099999997 11.3793178399999988 53.1379633399999989 S
atom -5.5195060099999997 11.3793178399999988 49.9999999999999929 S
atom 16.5561187400000023 13.1986798699999994 51.5689816699999923 Mo
atom -7.0964844800000009 14.1103711799999960 53.1379633399999989 S
atom -7.0964844800000009 14.1103711799999960 49.9999999999999929 S
atom 14.9791402700000003 15.9297332100000020 51.5689816699999923 Mo
atom -8.6734629499999993 16.8414245200000003 53.1379633399999989 S
atom -8.6734629499999993 16.8414245200000003 49.9999999999999929 S
atom 13.4021618000000018 18.6607865500000010 51.5689816699999923 Mo
atom -10.2504414199999996 19.5724778600000029 53.1379633399999989 S
atom -10.2504414199999996 19.5724778600000029 49.9999999999999929 S
atom -10.2505682000000000 21.3931447599999984 51.5689816699999923 Mo
atom 3.9420866600000006 0.4549180700000000 53.1379633399999989 S
atom 3.9420866600000006 0.4549180700000000 49.9999999999999929 S
atom 0.7882810900000004 2.2757713800000001 51.5689816699999923 Mo
atom 2.3651081900000004 3.1859714099999996 53.1379633399999989 S
atom 2.3651081900000004 3.1859714099999996 49.9999999999999929 S
atom -0.7886973800000002 5.0068247199999991 51.5689816699999923 Mo
atom 0.7881297200000005 5.9170247499999995 53.1379633399999989 S
atom 0.7881297200000005 5.9170247499999995 49.9999999999999929 S
atom -2.3656758500000001 7.7378780599999990 51.5689816699999923 Mo
atom -0.7888487499999995 8.6480780900000003 53.1379633399999989 S
atom -0.7888487499999995 8.6480780900000003 49.9999999999999929 S
atom -3.9426543200000004 10.4689314000000007 51.5689816699999923 Mo
atom -2.3658272199999995 11.3791314299999993 53.1379633399999989 S
atom -2.3658272199999995 11.3791314299999993 49.9999999999999929 S
atom -5.5196327900000002 13.1999847399999997 51.5689816699999923 Mo
atom -3.9428056900000010 14.1101847699999965 53.1379633399999989 S
atom -3.9428056900000010 14.1101847699999965 49.9999999999999929 S
atom -7.0966112599999995 15.9310380800000022 51.5689816699999923 Mo
atom -5.5197841600000013 16.8412381099999955 53.1379633399999989 S
atom -5.5197841600000013 16.8412381099999955 49.9999999999999929 S
atom -8.6735897299999998 18.6620914199999994 51.5689816699999923 Mo
atom -7.0967626299999997 19.5722914499999980 53.1379633399999989 S
atom -7.0967626299999997 19.5722914499999980 49.9999999999999929 S
atom -7.0968894100000011 21.3929583500000007 51.5689816699999923 Mo
atom 7.0957654500000000 0.4547316600000000 53.1379633399999989 S
atom 7.0957654500000000 0.4547316600000000 49.9999999999999929 S
atom 3.9419598799999993 2.2755849700000002 51.5689816699999923 Mo
atom 5.5187869799999998 3.1857850000000005 53.1379633399999989 S
atom 5.5187869799999998 3.1857850000000005 49.9999999999999929 S
atom 2.3649814099999995 5.0066383099999996 51.5689816699999923 Mo
atom 3.9418085100000004 5.9168383400000000 53.1379633399999989 S
atom 3.9418085100000004 5.9168383400000000 49.9999999999999929 S
atom 0.7880029400000000 7.7376916499999986 51.5689816699999923 Mo
atom 2.3648300400000002 8.6478916799999990 53.1379633399999989 S
atom 2.3648300400000002 8.6478916799999990 49.9999999999999929 S
atom -0.7889755300000000 10.4687449899999976 51.5689816699999923 Mo
atom 0.7878515700000003 11.3789450199999997 53.1379633399999989 S
atom 0.7878515700000003 11.3789450199999997 49.9999999999999929 S
atom -2.3659540000000008 13.1997983300000001 51.5689816699999923 Mo
atom -0.7891269000000010 14.1099983599999970 53.1379633399999989 S
atom -0.7891269000000010 14.1099983599999970 49.9999999999999929 S
atom -3.9429324700000006 15.9308516699999991 51.5689816699999923 Mo
atom -2.3661053700000010 16.8410516999999977 53.1379633399999989 S
atom -2.3661053700000010 16.8410516999999977 49.9999999999999929 S
atom -5.5199109399999990 18.6619050099999981 51.5689816699999923 Mo
atom -3.9430838399999995 19.5721050399999967 53.1379633399999989 S
atom -3.9430838399999995 19.5721050399999967 49.9999999999999929 S
atom -3.9432106200000017 21.3927719399999994 51.5689816699999923 Mo
atom 10.2494442400000008 0.4545452500000000 53.1379633399999989 S
atom 10.2494442400000008 0.4545452500000000 49.9999999999999929 S
atom 7.0956386699999978 2.2753985600000002 51.5689816699999923 Mo
atom 8.6724657700000005 3.1855985900000006 53.1379633399999989 S
atom 8.6724657700000005 3.1855985900000006 49.9999999999999929 S
atom 5.5186601999999993 5.0064518999999983 51.5689816699999923 Mo
atom 7.0954873000000012 5.9166519299999996 53.1379633399999989 S
atom 7.0954873000000012 5.9166519299999996 49.9999999999999929 S
atom 3.9416817299999982 7.7375052400000000 51.5689816699999923 Mo
atom 5.5185088300000009 8.6477052699999994 53.1379633399999989 S
atom 5.5185088300000009 8.6477052699999994 49.9999999999999929 S
atom 2.3647032599999975 10.4685585800000016 51.5689816699999923 Mo
atom 3.9415303600000011 11.3787586100000002 53.1379633399999989 S
atom 3.9415303600000011 11.3787586100000002 49.9999999999999929 S
atom 0.7877247899999983 13.1996119199999988 51.5689816699999923 Mo
atom 2.3645518900000009 14.1098119499999992 53.1379633399999989 S
atom 2.3645518900000009 14.1098119499999992 49.9999999999999929 S
atom -0.7892536800000014 15.9306652600000014 51.5689816699999923 Mo
atom 0.7875734199999995 16.8408652900000000 53.1379633399999989 S
atom 0.7875734199999995 16.8408652900000000 49.9999999999999929 S
atom -2.3662321500000019 18.6617186000000004 51.5689816699999923 Mo
atom -0.7894050500000005 19.5719186300000025 53.1379633399999989 S
atom -0.7894050500000005 19.5719186300000025 49.9999999999999929 S
atom -0.7895318299999993 21.3925855299999981 51.5689816699999923 Mo
atom 13.4031230300000015 0.4543588400000000 53.1379633399999989 S
atom 13.4031230300000015 0.4543588400000000 49.9999999999999929 S
atom 10.2493174600000003 2.2752121500000002 51.5689816699999923 Mo
atom 11.8261445600000012 3.1854121800000001 53.1379633399999989 S
atom 11.8261445600000012 3.1854121800000001 49.9999999999999929 S
atom 8.6723389900000001 5.0062654899999997 51.5689816699999923 Mo
atom 10.2491660900000010 5.9164655200000000 53.1379633399999989 S
atom 10.2491660900000010 5.9164655200000000 49.9999999999999929 S
atom 7.0953605200000016 7.7373188299999986 51.5689816699999923 Mo
atom 8.6721876199999972 8.6475188599999964 53.1379633399999989 S
atom 8.6721876199999972 8.6475188599999964 49.9999999999999929 S
atom 5.5183820500000005 10.4683721700000003 51.5689816699999923 Mo
atom 7.0952091500000014 11.3785721999999989 53.1379633399999989 S
atom 7.0952091500000014 11.3785721999999989 49.9999999999999929 S
atom 3.9414035800000007 13.1994255099999993 51.5689816699999923 Mo
atom 5.5182306799999976 14.1096255399999961 53.1379633399999989 S
atom 5.5182306799999976 14.1096255399999961 49.9999999999999929 S
atom 2.3644251100000009 15.9304788500000001 51.5689816699999923 Mo
atom 3.9412522099999978 16.8406788799999951 53.1379633399999989 S
atom 3.9412522099999978 16.8406788799999951 49.9999999999999929 S
atom 0.7874466400000008 18.6615321899999991 51.5689816699999923 Mo
atom 2.3642737399999993 19.5717322199999977 53.1379633399999989 S
atom 2.3642737399999993 19.5717322199999977 49.9999999999999929 S
atom 2.3641469600000016 21.3923991200000003 51.5689816699999923 Mo
atom 16.5568018200000004 0.4541724300000000 53.1379633399999989 S
atom 16.5568018200000004 0.4541724300000000 49.9999999999999929 S
atom 13.4029962500000011 2.2750257400000002 51.5689816699999923 Mo
atom 14.9798233500000002 3.1852257700000002 53.1379633399999989 S
atom 14.9798233500000002 3.1852257700000002 49.9999999999999929 S
atom 11.8260177799999990 5.0060790799999983 51.5689816699999923 Mo
atom 13.4028448800000000 5.9162791099999996 53.1379633399999989 S
atom 13.4028448800000000 5.9162791099999996 49.9999999999999929 S
atom 10.2490393099999988 7.7371324199999982 51.5689816699999923 Mo
atom 11.8258664100000015 8.6473324500000004 53.1379633399999989 S
atom 11.8258664100000015 8.6473324500000004 49.9999999999999929 S
atom 8.6720608400000003 10.4681857600000008 51.5689816699999923 Mo
atom 10.2488879400000013 11.3783857899999994 53.1379633399999989 S
atom 10.2488879400000013 11.3783857899999994 49.9999999999999929 S
atom 7.0950823700000019 13.1992390999999998 51.5689816699999923 Mo
atom 8.6719094699999992 14.1094391299999966 53.1379633399999989 S
atom 8.6719094699999992 14.1094391299999966 49.9999999999999929 S
atom 5.5181039000000016 15.9302924399999988 51.5689816699999923 Mo
atom 7.0949310000000017 16.8404924699999974 53.1379633399999989 S
atom 7.0949310000000017 16.8404924699999974 49.9999999999999929 S
atom 3.9411254300000014 18.6613457799999978 51.5689816699999923 Mo
atom 5.5179525299999996 19.5715458099999999 53.1379633399999989 S
atom 5.5179525299999996 19.5715458099999999 49.9999999999999929 S
atom 5.5178257499999965 21.3922127099999990 51.5689816699999923 Mo
atom 19.7104806099999976 0.4539860200000000 53.1379633399999989 S
atom 19.7104806099999976 0.4539860200000000 49.9999999999999929 S
atom 16.5566750399999982 2.2748393299999998 51.5689816699999923 Mo
atom 18.1335021399999974 3.1850393600000002 53.1379633399999989 S
atom 18.1335021399999974 3.1850393600000002 49.9999999999999929 S
atom 14.9796965699999962 5.0058926699999997 51.5689816699999923 Mo
atom 16.5565236699999971 5.9160926999999992 53.1379633399999989 S
atom 16.5565236699999971 5.9160926999999992 49.9999999999999929 S
atom 13.4027180999999977 7.7369460099999987 51.5689816699999923 Mo
atom 14.9795451999999987 8.6471460399999991 53.1379633399999989 S
atom 14.9795451999999987 8.6471460399999991 49.9999999999999929 S
atom 11.8257396299999975 10.4679993499999977 51.5689816699999923 Mo
atom 13.4025667299999984 11.3781993799999999 53.1379633399999989 S
atom 13.4025667299999984 11.3781993799999999 49.9999999999999929 S
atom 10.2487611599999973 13.1990526900000003 51.5689816699999923 Mo
atom 11.8255882599999964 14.1092527199999971 53.1379633399999989 S
atom 11.8255882599999964 14.1092527199999971 49.9999999999999929 S
atom 8.6717826899999988 15.9301060300000010 51.5689816699999923 Mo
atom 10.2486097900000033 16.8403060600000032 53.1379633399999989 S
atom 10.2486097900000033 16.8403060600000032 49.9999999999999929 S
atom 7.0948042199999968 18.6611593700000000 51.5689816699999923 Mo
atom 8.6716313199999959 19.5713593999999951 53.1379633399999989 S
atom 8.6716313199999959 19.5713593999999951 49.9999999999999929 S
atom 8.6715045399999973 21.3920262999999977 51.5689816699999923 Mo
atom 22.8641594000000019 0.4537996100000000 53.1379633399999989 S
atom 22.8641594000000019 0.4537996100000000 49.9999999999999929 S
atom 19.7103538299999990 2.2746529200000003 51.5689816699999923 Mo
atom 21.2871809300000017 3.1848529500000002 53.1379633399999989 S
atom 21.2871809300000017 3.1848529500000002 49.9999999999999929 S
atom 18.1333753599999987 5.0057062599999984 51.5689816699999923 Mo
atom 19.7102024600000014 5.9159062899999997 53.1379633399999989 S
atom 19.7102024600000014 5.9159062899999997 49.9999999999999929 S
atom 16.5563968899999985 7.7367596000000001 51.5689816699999923 Mo
atom 18.1332239900000012 8.6469596299999996 53.1379633399999989 S
atom 18.1332239900000012 8.6469596299999996 49.9999999999999929 S
atom 14.9794184199999965 10.4678129400000017 51.5689816699999923 Mo
atom 16.5562455200000009 11.3780129699999986 53.1379633399999989 S
atom 16.5562455200000009 11.3780129699999986 49.9999999999999929 S
atom 13.4024399499999980 13.1988662799999990 51.5689816699999923 Mo
atom 14.9792670500000025 14.1090663099999993 53.1379633399999989 S
atom 14.9792670500000025 14.1090663099999993 49.9999999999999929 S
atom 11.8254614799999977 15.9299196199999997 51.5689816699999923 Mo
atom 13.4022885799999969 16.8401196499999983 53.1379633399999989 S
atom 13.4022885799999969 16.8401196499999983 49.9999999999999929 S
atom 10.2484830099999957 18.6609729599999952 51.5689816699999923 Mo
atom 11.8253101099999967 19.5711729899999973 53.1379633399999989 S
atom 11.8253101099999967 19.5711729899999973 49.9999999999999929 S
