#=======================================================
# FHI-aims file: geometry_supercell.in
# Created using the Atomic Simulation Environment (ASE)
# Tue Jan 25 13:56:24 2022
#=======================================================
lattice_vector 26.2833157374245516 0.0000000000000000 0.0000000000000000 
lattice_vector 13.1416578687122758 22.7620191242969838 0.0000000000000000 
lattice_vector 0.0000000000000000 0.0000000000000000 107.1534124783503472 
atom 0.0000000000000000 0.0000000000000000 49.9999999999999929 Au
atom 1.4601842076346974 0.8430377453443328 52.3844708261167753 Au
atom 26.2833157374245516 1.6860754906886657 54.7689416522335577 Au
atom 0.0000000000000000 0.0000000000000000 57.1534124783503401 Au
atom 0.0000000000000000 0.0000000000000000 49.9999999999999929 Au
atom 1.4601842076346974 0.8430377453443328 52.3844708261167753 Au
atom 26.2833157374245516 1.6860754906886657 54.7689416522335577 Au
atom 0.0000000000000000 0.0000000000000000 57.1534124783503401 Au
atom 0.0000000000000000 0.0000000000000000 49.9999999999999929 Au
atom 1.4601842076346974 0.8430377453443328 52.3844708261167753 Au
atom 26.2833157374245516 1.6860754906886657 54.7689416522335577 Au
atom 0.0000000000000000 0.0000000000000000 57.1534124783503401 Au
atom 0.0000000000000000 0.0000000000000000 49.9999999999999929 Au
atom 1.4601842076346974 0.8430377453443328 52.3844708261167753 Au
atom 26.2833157374245516 1.6860754906886657 54.7689416522335577 Au
atom 0.0000000000000000 0.0000000000000000 57.1534124783503401 Au
atom 1.4601842076346971 2.5291132360329982 49.9999999999999929 Au
atom 2.9203684152693947 3.3721509813773314 52.3844708261167753 Au
atom 27.7434999450592485 4.2151887267216637 54.7689416522335577 Au
atom 1.4601842076346971 2.5291132360329982 57.1534124783503401 Au
atom 1.4601842076346971 2.5291132360329982 49.9999999999999929 Au
atom 2.9203684152693947 3.3721509813773314 52.3844708261167753 Au
atom 27.7434999450592485 4.2151887267216637 54.7689416522335577 Au
atom 1.4601842076346971 2.5291132360329982 57.1534124783503401 Au
atom 1.4601842076346971 2.5291132360329982 49.9999999999999929 Au
atom 2.9203684152693947 3.3721509813773314 52.3844708261167753 Au
atom 27.7434999450592485 4.2151887267216637 54.7689416522335577 Au
atom 1.4601842076346971 2.5291132360329982 57.1534124783503401 Au
atom 1.4601842076346971 2.5291132360329982 49.9999999999999929 Au
atom 2.9203684152693947 3.3721509813773314 52.3844708261167753 Au
atom 27.7434999450592485 4.2151887267216637 54.7689416522335577 Au
atom 1.4601842076346971 2.5291132360329982 57.1534124783503401 Au
atom 2.9203684152693943 5.0582264720659964 49.9999999999999929 Au
atom 4.3805526229040916 5.9012642174103291 52.3844708261167753 Au
atom 29.2036841526939455 6.7443019627546628 54.7689416522335577 Au
atom 2.9203684152693943 5.0582264720659964 57.1534124783503401 Au
atom 2.9203684152693943 5.0582264720659964 49.9999999999999929 Au
atom 4.3805526229040916 5.9012642174103291 52.3844708261167753 Au
atom 29.2036841526939455 6.7443019627546628 54.7689416522335577 Au
atom 2.9203684152693943 5.0582264720659964 57.1534124783503401 Au
atom 2.9203684152693943 5.0582264720659964 49.9999999999999929 Au
atom 4.3805526229040916 5.9012642174103291 52.3844708261167753 Au
atom 29.2036841526939455 6.7443019627546628 54.7689416522335577 Au
atom 2.9203684152693943 5.0582264720659964 57.1534124783503401 Au
atom 2.9203684152693943 5.0582264720659964 49.9999999999999929 Au
atom 4.3805526229040916 5.9012642174103291 52.3844708261167753 Au
atom 29.2036841526939455 6.7443019627546628 54.7689416522335577 Au
atom 2.9203684152693943 5.0582264720659964 57.1534124783503401 Au
atom 4.3805526229040916 7.5873397080989955 49.9999999999999929 Au
atom 5.8407368305387894 8.4303774534433273 52.3844708261167753 Au
atom 30.6638683603286459 9.2734151987876601 54.7689416522335577 Au
atom 4.3805526229040916 7.5873397080989955 57.1534124783503401 Au
atom 4.3805526229040916 7.5873397080989955 49.9999999999999929 Au
atom 5.8407368305387894 8.4303774534433273 52.3844708261167753 Au
atom 30.6638683603286459 9.2734151987876601 54.7689416522335577 Au
atom 4.3805526229040916 7.5873397080989955 57.1534124783503401 Au
atom 4.3805526229040916 7.5873397080989955 49.9999999999999929 Au
atom 5.8407368305387894 8.4303774534433273 52.3844708261167753 Au
atom 30.6638683603286459 9.2734151987876601 54.7689416522335577 Au
atom 4.3805526229040916 7.5873397080989955 57.1534124783503401 Au
atom 4.3805526229040916 7.5873397080989955 49.9999999999999929 Au
atom 5.8407368305387894 8.4303774534433273 52.3844708261167753 Au
atom 30.6638683603286459 9.2734151987876601 54.7689416522335577 Au
atom 4.3805526229040916 7.5873397080989955 57.1534124783503401 Au
atom 5.8407368305387886 10.1164529441319928 49.9999999999999929 Au
atom 7.3009210381734864 10.9594906894763255 52.3844708261167753 Au
atom 32.1240525679633393 11.8025284348206583 54.7689416522335577 Au
atom 5.8407368305387886 10.1164529441319928 57.1534124783503401 Au
atom 5.8407368305387886 10.1164529441319928 49.9999999999999929 Au
atom 7.3009210381734864 10.9594906894763255 52.3844708261167753 Au
atom 32.1240525679633393 11.8025284348206583 54.7689416522335577 Au
atom 5.8407368305387886 10.1164529441319928 57.1534124783503401 Au
atom 5.8407368305387886 10.1164529441319928 49.9999999999999929 Au
atom 7.3009210381734864 10.9594906894763255 52.3844708261167753 Au
atom 32.1240525679633393 11.8025284348206583 54.7689416522335577 Au
atom 5.8407368305387886 10.1164529441319928 57.1534124783503401 Au
atom 5.8407368305387886 10.1164529441319928 49.9999999999999929 Au
atom 7.3009210381734864 10.9594906894763255 52.3844708261167753 Au
atom 32.1240525679633393 11.8025284348206583 54.7689416522335577 Au
atom 5.8407368305387886 10.1164529441319928 57.1534124783503401 Au
atom 7.3009210381734873 12.6455661801649910 49.9999999999999929 Au
atom 8.7611052458081851 13.4886039255093255 52.3844708261167753 Au
atom 33.5842367755980362 14.3316416708536565 54.7689416522335577 Au
atom 7.3009210381734873 12.6455661801649910 57.1534124783503401 Au
atom 7.3009210381734873 12.6455661801649910 49.9999999999999929 Au
atom 8.7611052458081851 13.4886039255093255 52.3844708261167753 Au
atom 33.5842367755980362 14.3316416708536565 54.7689416522335577 Au
atom 7.3009210381734873 12.6455661801649910 57.1534124783503401 Au
atom 7.3009210381734873 12.6455661801649910 49.9999999999999929 Au
atom 8.7611052458081851 13.4886039255093255 52.3844708261167753 Au
atom 33.5842367755980362 14.3316416708536565 54.7689416522335577 Au
atom 7.3009210381734873 12.6455661801649910 57.1534124783503401 Au
atom 7.3009210381734873 12.6455661801649910 49.9999999999999929 Au
atom 8.7611052458081851 13.4886039255093255 52.3844708261167753 Au
atom 33.5842367755980362 14.3316416708536565 54.7689416522335577 Au
atom 7.3009210381734873 12.6455661801649910 57.1534124783503401 Au
atom 8.7611052458081833 15.1746794161979910 49.9999999999999929 Au
atom 10.2212894534428802 16.0177171615423219 52.3844708261167753 Au
atom 35.0444209832327331 16.8607549068866547 54.7689416522335577 Au
atom 8.7611052458081833 15.1746794161979910 57.1534124783503401 Au
atom 8.7611052458081833 15.1746794161979910 49.9999999999999929 Au
atom 10.2212894534428802 16.0177171615423219 52.3844708261167753 Au
atom 35.0444209832327331 16.8607549068866547 54.7689416522335577 Au
atom 8.7611052458081833 15.1746794161979910 57.1534124783503401 Au
atom 8.7611052458081833 15.1746794161979910 49.9999999999999929 Au
atom 10.2212894534428802 16.0177171615423219 52.3844708261167753 Au
atom 35.0444209832327331 16.8607549068866547 54.7689416522335577 Au
atom 8.7611052458081833 15.1746794161979910 57.1534124783503401 Au
atom 8.7611052458081833 15.1746794161979910 49.9999999999999929 Au
atom 10.2212894534428802 16.0177171615423219 52.3844708261167753 Au
atom 35.0444209832327331 16.8607549068866547 54.7689416522335577 Au
atom 8.7611052458081833 15.1746794161979910 57.1534124783503401 Au
atom 10.2212894534428802 17.7037926522309839 49.9999999999999929 Au
atom 11.6814736610775771 18.5468303975753166 52.3844708261167753 Au
atom 36.5046051908674301 19.3898681429196493 54.7689416522335577 Au
atom 10.2212894534428802 17.7037926522309839 57.1534124783503401 Au
atom 10.2212894534428802 17.7037926522309839 49.9999999999999929 Au
atom 11.6814736610775771 18.5468303975753166 52.3844708261167753 Au
atom 36.5046051908674301 19.3898681429196493 54.7689416522335577 Au
atom 10.2212894534428802 17.7037926522309839 57.1534124783503401 Au
atom 10.2212894534428802 17.7037926522309839 49.9999999999999929 Au
atom 11.6814736610775771 18.5468303975753166 52.3844708261167753 Au
atom 36.5046051908674301 19.3898681429196493 54.7689416522335577 Au
atom 10.2212894534428802 17.7037926522309839 57.1534124783503401 Au
atom 10.2212894534428802 17.7037926522309839 49.9999999999999929 Au
atom 11.6814736610775771 18.5468303975753166 52.3844708261167753 Au
atom 36.5046051908674301 19.3898681429196493 54.7689416522335577 Au
atom 10.2212894534428802 17.7037926522309839 57.1534124783503401 Au
atom 11.6814736610775771 20.2329058882639856 49.9999999999999929 Au
atom 13.1416578687122740 21.0759436336083184 52.3844708261167753 Au
atom 37.9647893985021341 21.9189813789526511 54.7689416522335577 Au
atom 11.6814736610775771 20.2329058882639856 57.1534124783503401 Au
atom 11.6814736610775771 20.2329058882639856 49.9999999999999929 Au
atom 13.1416578687122740 21.0759436336083184 52.3844708261167753 Au
atom 37.9647893985021341 21.9189813789526511 54.7689416522335577 Au
atom 11.6814736610775771 20.2329058882639856 57.1534124783503401 Au
atom 11.6814736610775771 20.2329058882639856 49.9999999999999929 Au
atom 13.1416578687122740 21.0759436336083184 52.3844708261167753 Au
atom 37.9647893985021341 21.9189813789526511 54.7689416522335577 Au
atom 11.6814736610775771 20.2329058882639856 57.1534124783503401 Au
atom 11.6814736610775771 20.2329058882639856 49.9999999999999929 Au
atom 13.1416578687122740 21.0759436336083184 52.3844708261167753 Au
atom 37.9647893985021341 21.9189813789526511 54.7689416522335577 Au
atom 11.6814736610775771 20.2329058882639856 57.1534124783503401 Au
atom 2.9203684152693943 0.0000000000000000 49.9999999999999929 Au
atom 4.3805526229040916 0.8430377453443328 52.3844708261167753 Au
atom 2.9203684152693938 1.6860754906886657 54.7689416522335577 Au
atom 2.9203684152693943 0.0000000000000000 57.1534124783503401 Au
atom 2.9203684152693943 0.0000000000000000 49.9999999999999929 Au
atom 4.3805526229040916 0.8430377453443328 52.3844708261167753 Au
atom 2.9203684152693938 1.6860754906886657 54.7689416522335577 Au
atom 2.9203684152693943 0.0000000000000000 57.1534124783503401 Au
atom 2.9203684152693943 0.0000000000000000 49.9999999999999929 Au
atom 4.3805526229040916 0.8430377453443328 52.3844708261167753 Au
atom 2.9203684152693938 1.6860754906886657 54.7689416522335577 Au
atom 2.9203684152693943 0.0000000000000000 57.1534124783503401 Au
atom 2.9203684152693943 0.0000000000000000 49.9999999999999929 Au
atom 4.3805526229040916 0.8430377453443328 52.3844708261167753 Au
atom 2.9203684152693938 1.6860754906886657 54.7689416522335577 Au
atom 2.9203684152693943 0.0000000000000000 57.1534124783503401 Au
atom 4.3805526229040916 2.5291132360329982 49.9999999999999929 Au
atom 5.8407368305387894 3.3721509813773314 52.3844708261167753 Au
atom 4.3805526229040916 4.2151887267216637 54.7689416522335577 Au
atom 4.3805526229040916 2.5291132360329982 57.1534124783503401 Au
atom 4.3805526229040916 2.5291132360329982 49.9999999999999929 Au
atom 5.8407368305387894 3.3721509813773314 52.3844708261167753 Au
atom 4.3805526229040916 4.2151887267216637 54.7689416522335577 Au
atom 4.3805526229040916 2.5291132360329982 57.1534124783503401 Au
atom 4.3805526229040916 2.5291132360329982 49.9999999999999929 Au
atom 5.8407368305387894 3.3721509813773314 52.3844708261167753 Au
atom 4.3805526229040916 4.2151887267216637 54.7689416522335577 Au
atom 4.3805526229040916 2.5291132360329982 57.1534124783503401 Au
atom 4.3805526229040916 2.5291132360329982 49.9999999999999929 Au
atom 5.8407368305387894 3.3721509813773314 52.3844708261167753 Au
atom 4.3805526229040916 4.2151887267216637 54.7689416522335577 Au
atom 4.3805526229040916 2.5291132360329982 57.1534124783503401 Au
atom 5.8407368305387886 5.0582264720659964 49.9999999999999929 Au
atom 7.3009210381734864 5.9012642174103291 52.3844708261167753 Au
atom 5.8407368305387886 6.7443019627546628 54.7689416522335577 Au
atom 5.8407368305387886 5.0582264720659964 57.1534124783503401 Au
atom 5.8407368305387886 5.0582264720659964 49.9999999999999929 Au
atom 7.3009210381734864 5.9012642174103291 52.3844708261167753 Au
atom 5.8407368305387886 6.7443019627546628 54.7689416522335577 Au
atom 5.8407368305387886 5.0582264720659964 57.1534124783503401 Au
atom 5.8407368305387886 5.0582264720659964 49.9999999999999929 Au
atom 7.3009210381734864 5.9012642174103291 52.3844708261167753 Au
atom 5.8407368305387886 6.7443019627546628 54.7689416522335577 Au
atom 5.8407368305387886 5.0582264720659964 57.1534124783503401 Au
atom 5.8407368305387886 5.0582264720659964 49.9999999999999929 Au
atom 7.3009210381734864 5.9012642174103291 52.3844708261167753 Au
atom 5.8407368305387886 6.7443019627546628 54.7689416522335577 Au
atom 5.8407368305387886 5.0582264720659964 57.1534124783503401 Au
atom 7.3009210381734864 7.5873397080989955 49.9999999999999929 Au
atom 8.7611052458081833 8.4303774534433273 52.3844708261167753 Au
atom 7.3009210381734864 9.2734151987876601 54.7689416522335577 Au
atom 7.3009210381734864 7.5873397080989955 57.1534124783503401 Au
atom 7.3009210381734864 7.5873397080989955 49.9999999999999929 Au
atom 8.7611052458081833 8.4303774534433273 52.3844708261167753 Au
atom 7.3009210381734864 9.2734151987876601 54.7689416522335577 Au
atom 7.3009210381734864 7.5873397080989955 57.1534124783503401 Au
atom 7.3009210381734864 7.5873397080989955 49.9999999999999929 Au
atom 8.7611052458081833 8.4303774534433273 52.3844708261167753 Au
atom 7.3009210381734864 9.2734151987876601 54.7689416522335577 Au
atom 7.3009210381734864 7.5873397080989955 57.1534124783503401 Au
atom 7.3009210381734864 7.5873397080989955 49.9999999999999929 Au
atom 8.7611052458081833 8.4303774534433273 52.3844708261167753 Au
atom 7.3009210381734864 9.2734151987876601 54.7689416522335577 Au
atom 7.3009210381734864 7.5873397080989955 57.1534124783503401 Au
atom 8.7611052458081833 10.1164529441319928 49.9999999999999929 Au
atom 10.2212894534428802 10.9594906894763255 52.3844708261167753 Au
atom 8.7611052458081833 11.8025284348206583 54.7689416522335577 Au
atom 8.7611052458081833 10.1164529441319928 57.1534124783503401 Au
atom 8.7611052458081833 10.1164529441319928 49.9999999999999929 Au
atom 10.2212894534428802 10.9594906894763255 52.3844708261167753 Au
atom 8.7611052458081833 11.8025284348206583 54.7689416522335577 Au
atom 8.7611052458081833 10.1164529441319928 57.1534124783503401 Au
atom 8.7611052458081833 10.1164529441319928 49.9999999999999929 Au
atom 10.2212894534428802 10.9594906894763255 52.3844708261167753 Au
atom 8.7611052458081833 11.8025284348206583 54.7689416522335577 Au
atom 8.7611052458081833 10.1164529441319928 57.1534124783503401 Au
atom 8.7611052458081833 10.1164529441319928 49.9999999999999929 Au
atom 10.2212894534428802 10.9594906894763255 52.3844708261167753 Au
atom 8.7611052458081833 11.8025284348206583 54.7689416522335577 Au
atom 8.7611052458081833 10.1164529441319928 57.1534124783503401 Au
atom 10.2212894534428820 12.6455661801649910 49.9999999999999929 Au
atom 11.6814736610775789 13.4886039255093255 52.3844708261167753 Au
atom 10.2212894534428820 14.3316416708536565 54.7689416522335577 Au
atom 10.2212894534428820 12.6455661801649910 57.1534124783503401 Au
atom 10.2212894534428820 12.6455661801649910 49.9999999999999929 Au
atom 11.6814736610775789 13.4886039255093255 52.3844708261167753 Au
atom 10.2212894534428820 14.3316416708536565 54.7689416522335577 Au
atom 10.2212894534428820 12.6455661801649910 57.1534124783503401 Au
atom 10.2212894534428820 12.6455661801649910 49.9999999999999929 Au
atom 11.6814736610775789 13.4886039255093255 52.3844708261167753 Au
atom 10.2212894534428820 14.3316416708536565 54.7689416522335577 Au
atom 10.2212894534428820 12.6455661801649910 57.1534124783503401 Au
atom 10.2212894534428820 12.6455661801649910 49.9999999999999929 Au
atom 11.6814736610775789 13.4886039255093255 52.3844708261167753 Au
atom 10.2212894534428820 14.3316416708536565 54.7689416522335577 Au
atom 10.2212894534428820 12.6455661801649910 57.1534124783503401 Au
atom 11.6814736610775771 15.1746794161979910 49.9999999999999929 Au
atom 13.1416578687122723 16.0177171615423219 52.3844708261167753 Au
atom 11.6814736610775771 16.8607549068866547 54.7689416522335577 Au
atom 11.6814736610775771 15.1746794161979910 57.1534124783503401 Au
atom 11.6814736610775771 15.1746794161979910 49.9999999999999929 Au
atom 13.1416578687122723 16.0177171615423219 52.3844708261167753 Au
atom 11.6814736610775771 16.8607549068866547 54.7689416522335577 Au
atom 11.6814736610775771 15.1746794161979910 57.1534124783503401 Au
atom 11.6814736610775771 15.1746794161979910 49.9999999999999929 Au
atom 13.1416578687122723 16.0177171615423219 52.3844708261167753 Au
atom 11.6814736610775771 16.8607549068866547 54.7689416522335577 Au
atom 11.6814736610775771 15.1746794161979910 57.1534124783503401 Au
atom 11.6814736610775771 15.1746794161979910 49.9999999999999929 Au
atom 13.1416578687122723 16.0177171615423219 52.3844708261167753 Au
atom 11.6814736610775771 16.8607549068866547 54.7689416522335577 Au
atom 11.6814736610775771 15.1746794161979910 57.1534124783503401 Au
atom 13.1416578687122740 17.7037926522309839 49.9999999999999929 Au
atom 14.6018420763469710 18.5468303975753166 52.3844708261167753 Au
atom 13.1416578687122740 19.3898681429196493 54.7689416522335577 Au
atom 13.1416578687122740 17.7037926522309839 57.1534124783503401 Au
atom 13.1416578687122740 17.7037926522309839 49.9999999999999929 Au
atom 14.6018420763469710 18.5468303975753166 52.3844708261167753 Au
atom 13.1416578687122740 19.3898681429196493 54.7689416522335577 Au
atom 13.1416578687122740 17.7037926522309839 57.1534124783503401 Au
atom 13.1416578687122740 17.7037926522309839 49.9999999999999929 Au
atom 14.6018420763469710 18.5468303975753166 52.3844708261167753 Au
atom 13.1416578687122740 19.3898681429196493 54.7689416522335577 Au
atom 13.1416578687122740 17.7037926522309839 57.1534124783503401 Au
atom 13.1416578687122740 17.7037926522309839 49.9999999999999929 Au
atom 14.6018420763469710 18.5468303975753166 52.3844708261167753 Au
atom 13.1416578687122740 19.3898681429196493 54.7689416522335577 Au
atom 13.1416578687122740 17.7037926522309839 57.1534124783503401 Au
atom 14.6018420763469727 20.2329058882639856 49.9999999999999929 Au
atom 16.0620262839816696 21.0759436336083184 52.3844708261167753 Au
atom 14.6018420763469727 21.9189813789526511 54.7689416522335577 Au
atom 14.6018420763469727 20.2329058882639856 57.1534124783503401 Au
atom 14.6018420763469727 20.2329058882639856 49.9999999999999929 Au
atom 16.0620262839816696 21.0759436336083184 52.3844708261167753 Au
atom 14.6018420763469727 21.9189813789526511 54.7689416522335577 Au
atom 14.6018420763469727 20.2329058882639856 57.1534124783503401 Au
atom 14.6018420763469727 20.2329058882639856 49.9999999999999929 Au
atom 16.0620262839816696 21.0759436336083184 52.3844708261167753 Au
atom 14.6018420763469727 21.9189813789526511 54.7689416522335577 Au
atom 14.6018420763469727 20.2329058882639856 57.1534124783503401 Au
atom 14.6018420763469727 20.2329058882639856 49.9999999999999929 Au
atom 16.0620262839816696 21.0759436336083184 52.3844708261167753 Au
atom 14.6018420763469727 21.9189813789526511 54.7689416522335577 Au
atom 14.6018420763469727 20.2329058882639856 57.1534124783503401 Au
atom 5.8407368305387886 0.0000000000000000 49.9999999999999929 Au
atom 7.3009210381734864 0.8430377453443328 52.3844708261167753 Au
atom 5.8407368305387877 1.6860754906886657 54.7689416522335577 Au
atom 5.8407368305387886 0.0000000000000000 57.1534124783503401 Au
atom 5.8407368305387886 0.0000000000000000 49.9999999999999929 Au
atom 7.3009210381734864 0.8430377453443328 52.3844708261167753 Au
atom 5.8407368305387877 1.6860754906886657 54.7689416522335577 Au
atom 5.8407368305387886 0.0000000000000000 57.1534124783503401 Au
atom 5.8407368305387886 0.0000000000000000 49.9999999999999929 Au
atom 7.3009210381734864 0.8430377453443328 52.3844708261167753 Au
atom 5.8407368305387877 1.6860754906886657 54.7689416522335577 Au
atom 5.8407368305387886 0.0000000000000000 57.1534124783503401 Au
atom 5.8407368305387886 0.0000000000000000 49.9999999999999929 Au
atom 7.3009210381734864 0.8430377453443328 52.3844708261167753 Au
atom 5.8407368305387877 1.6860754906886657 54.7689416522335577 Au
atom 5.8407368305387886 0.0000000000000000 57.1534124783503401 Au
atom 7.3009210381734855 2.5291132360329982 49.9999999999999929 Au
atom 8.7611052458081815 3.3721509813773314 52.3844708261167753 Au
atom 7.3009210381734855 4.2151887267216637 54.7689416522335577 Au
atom 7.3009210381734855 2.5291132360329982 57.1534124783503401 Au
atom 7.3009210381734855 2.5291132360329982 49.9999999999999929 Au
atom 8.7611052458081815 3.3721509813773314 52.3844708261167753 Au
atom 7.3009210381734855 4.2151887267216637 54.7689416522335577 Au
atom 7.3009210381734855 2.5291132360329982 57.1534124783503401 Au
atom 7.3009210381734855 2.5291132360329982 49.9999999999999929 Au
atom 8.7611052458081815 3.3721509813773314 52.3844708261167753 Au
atom 7.3009210381734855 4.2151887267216637 54.7689416522335577 Au
atom 7.3009210381734855 2.5291132360329982 57.1534124783503401 Au
atom 7.3009210381734855 2.5291132360329982 49.9999999999999929 Au
atom 8.7611052458081815 3.3721509813773314 52.3844708261167753 Au
atom 7.3009210381734855 4.2151887267216637 54.7689416522335577 Au
atom 7.3009210381734855 2.5291132360329982 57.1534124783503401 Au
atom 8.7611052458081833 5.0582264720659964 49.9999999999999929 Au
atom 10.2212894534428784 5.9012642174103291 52.3844708261167753 Au
atom 8.7611052458081833 6.7443019627546628 54.7689416522335577 Au
atom 8.7611052458081833 5.0582264720659964 57.1534124783503401 Au
atom 8.7611052458081833 5.0582264720659964 49.9999999999999929 Au
atom 10.2212894534428784 5.9012642174103291 52.3844708261167753 Au
atom 8.7611052458081833 6.7443019627546628 54.7689416522335577 Au
atom 8.7611052458081833 5.0582264720659964 57.1534124783503401 Au
atom 8.7611052458081833 5.0582264720659964 49.9999999999999929 Au
atom 10.2212894534428784 5.9012642174103291 52.3844708261167753 Au
atom 8.7611052458081833 6.7443019627546628 54.7689416522335577 Au
atom 8.7611052458081833 5.0582264720659964 57.1534124783503401 Au
atom 8.7611052458081833 5.0582264720659964 49.9999999999999929 Au
atom 10.2212894534428784 5.9012642174103291 52.3844708261167753 Au
atom 8.7611052458081833 6.7443019627546628 54.7689416522335577 Au
atom 8.7611052458081833 5.0582264720659964 57.1534124783503401 Au
atom 10.2212894534428802 7.5873397080989955 49.9999999999999929 Au
atom 11.6814736610775771 8.4303774534433273 52.3844708261167753 Au
atom 10.2212894534428802 9.2734151987876601 54.7689416522335577 Au
atom 10.2212894534428802 7.5873397080989955 57.1534124783503401 Au
atom 10.2212894534428802 7.5873397080989955 49.9999999999999929 Au
atom 11.6814736610775771 8.4303774534433273 52.3844708261167753 Au
atom 10.2212894534428802 9.2734151987876601 54.7689416522335577 Au
atom 10.2212894534428802 7.5873397080989955 57.1534124783503401 Au
atom 10.2212894534428802 7.5873397080989955 49.9999999999999929 Au
atom 11.6814736610775771 8.4303774534433273 52.3844708261167753 Au
atom 10.2212894534428802 9.2734151987876601 54.7689416522335577 Au
atom 10.2212894534428802 7.5873397080989955 57.1534124783503401 Au
atom 10.2212894534428802 7.5873397080989955 49.9999999999999929 Au
atom 11.6814736610775771 8.4303774534433273 52.3844708261167753 Au
atom 10.2212894534428802 9.2734151987876601 54.7689416522335577 Au
atom 10.2212894534428802 7.5873397080989955 57.1534124783503401 Au
atom 11.6814736610775771 10.1164529441319928 49.9999999999999929 Au
atom 13.1416578687122740 10.9594906894763255 52.3844708261167753 Au
atom 11.6814736610775771 11.8025284348206583 54.7689416522335577 Au
atom 11.6814736610775771 10.1164529441319928 57.1534124783503401 Au
atom 11.6814736610775771 10.1164529441319928 49.9999999999999929 Au
atom 13.1416578687122740 10.9594906894763255 52.3844708261167753 Au
atom 11.6814736610775771 11.8025284348206583 54.7689416522335577 Au
atom 11.6814736610775771 10.1164529441319928 57.1534124783503401 Au
atom 11.6814736610775771 10.1164529441319928 49.9999999999999929 Au
atom 13.1416578687122740 10.9594906894763255 52.3844708261167753 Au
atom 11.6814736610775771 11.8025284348206583 54.7689416522335577 Au
atom 11.6814736610775771 10.1164529441319928 57.1534124783503401 Au
atom 11.6814736610775771 10.1164529441319928 49.9999999999999929 Au
atom 13.1416578687122740 10.9594906894763255 52.3844708261167753 Au
atom 11.6814736610775771 11.8025284348206583 54.7689416522335577 Au
atom 11.6814736610775771 10.1164529441319928 57.1534124783503401 Au
atom 13.1416578687122758 12.6455661801649910 49.9999999999999929 Au
atom 14.6018420763469727 13.4886039255093255 52.3844708261167753 Au
atom 13.1416578687122758 14.3316416708536565 54.7689416522335577 Au
atom 13.1416578687122758 12.6455661801649910 57.1534124783503401 Au
atom 13.1416578687122758 12.6455661801649910 49.9999999999999929 Au
atom 14.6018420763469727 13.4886039255093255 52.3844708261167753 Au
atom 13.1416578687122758 14.3316416708536565 54.7689416522335577 Au
atom 13.1416578687122758 12.6455661801649910 57.1534124783503401 Au
atom 13.1416578687122758 12.6455661801649910 49.9999999999999929 Au
atom 14.6018420763469727 13.4886039255093255 52.3844708261167753 Au
atom 13.1416578687122758 14.3316416708536565 54.7689416522335577 Au
atom 13.1416578687122758 12.6455661801649910 57.1534124783503401 Au
atom 13.1416578687122758 12.6455661801649910 49.9999999999999929 Au
atom 14.6018420763469727 13.4886039255093255 52.3844708261167753 Au
atom 13.1416578687122758 14.3316416708536565 54.7689416522335577 Au
atom 13.1416578687122758 12.6455661801649910 57.1534124783503401 Au
atom 14.6018420763469727 15.1746794161979910 49.9999999999999929 Au
atom 16.0620262839816696 16.0177171615423219 52.3844708261167753 Au
atom 14.6018420763469727 16.8607549068866547 54.7689416522335577 Au
atom 14.6018420763469727 15.1746794161979910 57.1534124783503401 Au
atom 14.6018420763469727 15.1746794161979910 49.9999999999999929 Au
atom 16.0620262839816696 16.0177171615423219 52.3844708261167753 Au
atom 14.6018420763469727 16.8607549068866547 54.7689416522335577 Au
atom 14.6018420763469727 15.1746794161979910 57.1534124783503401 Au
atom 14.6018420763469727 15.1746794161979910 49.9999999999999929 Au
atom 16.0620262839816696 16.0177171615423219 52.3844708261167753 Au
atom 14.6018420763469727 16.8607549068866547 54.7689416522335577 Au
atom 14.6018420763469727 15.1746794161979910 57.1534124783503401 Au
atom 14.6018420763469727 15.1746794161979910 49.9999999999999929 Au
atom 16.0620262839816696 16.0177171615423219 52.3844708261167753 Au
atom 14.6018420763469727 16.8607549068866547 54.7689416522335577 Au
atom 14.6018420763469727 15.1746794161979910 57.1534124783503401 Au
atom 16.0620262839816696 17.7037926522309839 49.9999999999999929 Au
atom 17.5222104916163666 18.5468303975753166 52.3844708261167753 Au
atom 16.0620262839816696 19.3898681429196493 54.7689416522335577 Au
atom 16.0620262839816696 17.7037926522309839 57.1534124783503401 Au
atom 16.0620262839816696 17.7037926522309839 49.9999999999999929 Au
atom 17.5222104916163666 18.5468303975753166 52.3844708261167753 Au
atom 16.0620262839816696 19.3898681429196493 54.7689416522335577 Au
atom 16.0620262839816696 17.7037926522309839 57.1534124783503401 Au
atom 16.0620262839816696 17.7037926522309839 49.9999999999999929 Au
atom 17.5222104916163666 18.5468303975753166 52.3844708261167753 Au
atom 16.0620262839816696 19.3898681429196493 54.7689416522335577 Au
atom 16.0620262839816696 17.7037926522309839 57.1534124783503401 Au
atom 16.0620262839816696 17.7037926522309839 49.9999999999999929 Au
atom 17.5222104916163666 18.5468303975753166 52.3844708261167753 Au
atom 16.0620262839816696 19.3898681429196493 54.7689416522335577 Au
atom 16.0620262839816696 17.7037926522309839 57.1534124783503401 Au
atom 17.5222104916163666 20.2329058882639856 49.9999999999999929 Au
atom 18.9823946992510635 21.0759436336083184 52.3844708261167753 Au
atom 17.5222104916163666 21.9189813789526511 54.7689416522335577 Au
atom 17.5222104916163666 20.2329058882639856 57.1534124783503401 Au
atom 17.5222104916163666 20.2329058882639856 49.9999999999999929 Au
atom 18.9823946992510635 21.0759436336083184 52.3844708261167753 Au
atom 17.5222104916163666 21.9189813789526511 54.7689416522335577 Au
atom 17.5222104916163666 20.2329058882639856 57.1534124783503401 Au
atom 17.5222104916163666 20.2329058882639856 49.9999999999999929 Au
atom 18.9823946992510635 21.0759436336083184 52.3844708261167753 Au
atom 17.5222104916163666 21.9189813789526511 54.7689416522335577 Au
atom 17.5222104916163666 20.2329058882639856 57.1534124783503401 Au
atom 17.5222104916163666 20.2329058882639856 49.9999999999999929 Au
atom 18.9823946992510635 21.0759436336083184 52.3844708261167753 Au
atom 17.5222104916163666 21.9189813789526511 54.7689416522335577 Au
atom 17.5222104916163666 20.2329058882639856 57.1534124783503401 Au
atom 8.7611052458081815 0.0000000000000000 49.9999999999999929 Au
atom 10.2212894534428784 0.8430377453443328 52.3844708261167753 Au
atom 8.7611052458081833 1.6860754906886657 54.7689416522335577 Au
atom 8.7611052458081815 0.0000000000000000 57.1534124783503401 Au
atom 8.7611052458081815 0.0000000000000000 49.9999999999999929 Au
atom 10.2212894534428784 0.8430377453443328 52.3844708261167753 Au
atom 8.7611052458081833 1.6860754906886657 54.7689416522335577 Au
atom 8.7611052458081815 0.0000000000000000 57.1534124783503401 Au