#=======================================================
# FHI-aims file: geometry_mos2.in
# Created using the Atomic Simulation Environment (ASE)
# Tue Jan 25 13:56:24 2022
#=======================================================
lattice_vector 25.2294303199999987 0.0000000000000000 0.0000000000000000 
lattice_vector 12.6158277600000002 21.8484267199999991 0.0000000000000000 
lattice_vector 0.0000000000000000 0.0000000000000000 103.1379633399999989 
atom 47.0568388500000054 31.3933311699999997 61.5689816699999994 Mo
atom 10.7884078700000003 10.4551044799999993 63.1379633399999989 S
atom 10.7884078700000003 10.4551044799999993 60.0000000000000000 S
atom 36.0179895600000037 12.2759577899999996 61.5689816699999994 Mo
atom 12.3653863400000006 13.1861578200000000 63.1379633399999989 S
atom 12.3653863400000006 13.1861578200000000 60.0000000000000000 S
atom 37.5949680300000040 15.0070111299999986 61.5689816699999994 Mo
atom 13.9423648100000008 15.9172111600000008 63.1379633399999989 S
atom 13.9423648100000008 15.9172111600000008 60.0000000000000000 S
atom 39.1719465000000042 17.7380644700000012 61.5689816699999994 Mo
atom 15.5193432800000011 18.6482645000000034 63.1379633399999989 S
atom 15.5193432800000011 18.6482645000000034 60.0000000000000000 S
atom 40.7489249700000045 20.4691178100000002 61.5689816699999994 Mo
atom 17.0963217500000013 21.3793178399999988 63.1379633399999989 S
atom 17.0963217500000013 21.3793178399999988 60.0000000000000000 S
atom 42.3259034400000047 23.2001711500000027 61.5689816699999994 Mo
atom 18.6733002200000016 24.1103711799999978 63.1379633399999989 S
atom 18.6733002200000016 24.1103711799999978 60.0000000000000000 S
atom 43.9028819099999978 25.9312244900000053 61.5689816699999994 Mo
atom 20.2502786900000018 26.8414245200000003 63.1379633399999989 S
atom 20.2502786900000018 26.8414245200000003 60.0000000000000000 S
atom 45.4798603799999981 28.6622778300000007 61.5689816699999994 Mo
atom 21.8272571600000020 29.5724778599999993 63.1379633399999989 S
atom 21.8272571600000020 29.5724778599999993 60.0000000000000000 S
atom 24.9810873200000003 31.3933311699999997 61.5689816699999994 Mo
atom 13.9420866600000011 10.4551044799999993 63.1379633399999989 S
atom 13.9420866600000011 10.4551044799999993 60.0000000000000000 S
atom 13.9422380300000004 12.2759577899999996 61.5689816699999994 Mo
atom 15.5190651300000013 13.1861578200000000 63.1379633399999989 S
atom 15.5190651300000013 13.1861578200000000 60.0000000000000000 S
atom 15.5192164999999989 15.0070111299999986 61.5689816699999994 Mo
atom 17.0960436000000016 15.9172111600000008 63.1379633399999989 S
atom 17.0960436000000016 15.9172111600000008 60.0000000000000000 S
atom 17.0961949699999991 17.7380644700000012 61.5689816699999994 Mo
atom 18.6730220700000018 18.6482645000000034 63.1379633399999989 S
atom 18.6730220700000018 18.6482645000000034 60.0000000000000000 S
atom 18.6731734399999993 20.4691178100000002 61.5689816699999994 Mo
atom 20.2500005400000020 21.3793178399999988 63.1379633399999989 S
atom 20.2500005400000020 21.3793178399999988 60.0000000000000000 S
atom 20.2501519099999996 23.2001711500000027 61.5689816699999994 Mo
atom 21.8269790100000023 24.1103711799999978 63.1379633399999989 S
atom 21.8269790100000023 24.1103711799999978 60.0000000000000000 S
atom 21.8271303799999998 25.9312244900000053 61.5689816699999994 Mo
atom 23.4039574800000025 26.8414245200000003 63.1379633399999989 S
atom 23.4039574800000025 26.8414245200000003 60.0000000000000000 S
atom 23.4041088500000001 28.6622778300000007 61.5689816699999994 Mo
atom 24.9809359500000028 29.5724778599999993 63.1379633399999989 S
atom 24.9809359500000028 29.5724778599999993 60.0000000000000000 S
atom 28.1347661100000010 31.3933311699999997 61.5689816699999994 Mo
atom 17.0957654500000018 10.4551044799999993 63.1379633399999989 S
atom 17.0957654500000018 10.4551044799999993 60.0000000000000000 S
atom 17.0959168199999993 12.2759577899999996 61.5689816699999994 Mo
atom 18.6727439200000020 13.1861578200000000 63.1379633399999989 S
atom 18.6727439200000020 13.1861578200000000 60.0000000000000000 S
atom 18.6728952899999996 15.0070111299999986 61.5689816699999994 Mo
atom 20.2497223900000023 15.9172111600000008 63.1379633399999989 S
atom 20.2497223900000023 15.9172111600000008 60.0000000000000000 S
atom 20.2498737599999998 17.7380644700000012 61.5689816699999994 Mo
atom 21.8267008600000025 18.6482645000000034 63.1379633399999989 S
atom 21.8267008600000025 18.6482645000000034 60.0000000000000000 S
atom 21.8268522300000001 20.4691178100000002 61.5689816699999994 Mo
atom 23.4036793299999992 21.3793178399999988 63.1379633399999989 S
atom 23.4036793299999992 21.3793178399999988 60.0000000000000000 S
atom 23.4038307000000003 23.2001711500000027 61.5689816699999994 Mo
atom 24.9806578000000030 24.1103711799999978 63.1379633399999989 S
atom 24.9806578000000030 24.1103711799999978 60.0000000000000000 S
atom 24.9808091700000006 25.9312244900000053 61.5689816699999994 Mo
atom 26.5576362699999997 26.8414245200000003 63.1379633399999989 S
atom 26.5576362699999997 26.8414245200000003 60.0000000000000000 S
atom 26.5577876400000008 28.6622778300000007 61.5689816699999994 Mo
atom 28.1346147400000000 29.5724778599999993 63.1379633399999989 S
atom 28.1346147400000000 29.5724778599999993 60.0000000000000000 S
atom 31.2884448999999982 31.3933311699999997 61.5689816699999994 Mo
atom 20.2494442399999954 10.4551044799999993 63.1379633399999989 S
atom 20.2494442399999954 10.4551044799999993 60.0000000000000000 S
atom 20.2495956100000001 12.2759577899999996 61.5689816699999994 Mo
atom 21.8264227099999992 13.1861578200000000 63.1379633399999989 S
atom 21.8264227099999992 13.1861578200000000 60.0000000000000000 S
atom 21.8265740800000003 15.0070111299999986 61.5689816699999994 Mo
atom 23.4034011799999995 15.9172111600000008 63.1379633399999989 S
atom 23.4034011799999995 15.9172111600000008 60.0000000000000000 S
atom 23.4035525500000006 17.7380644700000012 61.5689816699999994 Mo
atom 24.9803796499999962 18.6482645000000034 63.1379633399999989 S
atom 24.9803796499999962 18.6482645000000034 60.0000000000000000 S
atom 24.9805310200000008 20.4691178100000002 61.5689816699999994 Mo
atom 26.5573581200000000 21.3793178399999988 63.1379633399999989 S
atom 26.5573581200000000 21.3793178399999988 60.0000000000000000 S
atom 26.5575094900000011 23.2001711500000027 61.5689816699999994 Mo
atom 28.1343365900000038 24.1103711799999978 63.1379633399999989 S
atom 28.1343365900000038 24.1103711799999978 60.0000000000000000 S
atom 28.1344879600000013 25.9312244900000053 61.5689816699999994 Mo
atom 29.7113150600000004 26.8414245200000003 63.1379633399999989 S
atom 29.7113150600000004 26.8414245200000003 60.0000000000000000 S
atom 29.7114664300000015 28.6622778300000007 61.5689816699999994 Mo
atom 31.2882935300000007 29.5724778599999993 63.1379633399999989 S
atom 31.2882935300000007 29.5724778599999993 60.0000000000000000 S
atom 34.4421236900000025 31.3933311699999997 61.5689816699999994 Mo
atom 23.4031230299999962 10.4551044799999993 63.1379633399999989 S
atom 23.4031230299999962 10.4551044799999993 60.0000000000000000 S
atom 23.4032744000000008 12.2759577899999996 61.5689816699999994 Mo
atom 24.9801015000000000 13.1861578200000000 63.1379633399999989 S
atom 24.9801015000000000 13.1861578200000000 60.0000000000000000 S
atom 24.9802528700000011 15.0070111299999986 61.5689816699999994 Mo
atom 26.5570799700000038 15.9172111600000008 63.1379633399999989 S
atom 26.5570799700000038 15.9172111600000008 60.0000000000000000 S
atom 26.5572313400000013 17.7380644700000012 61.5689816699999994 Mo
atom 28.1340584400000004 18.6482645000000034 63.1379633399999989 S
atom 28.1340584400000004 18.6482645000000034 60.0000000000000000 S
atom 28.1342098100000015 20.4691178100000002 61.5689816699999994 Mo
atom 29.7110369100000007 21.3793178399999988 63.1379633399999989 S
atom 29.7110369100000007 21.3793178399999988 60.0000000000000000 S
atom 29.7111882800000018 23.2001711500000027 61.5689816699999994 Mo
atom 31.2880153800000009 24.1103711799999978 63.1379633399999989 S
atom 31.2880153800000009 24.1103711799999978 60.0000000000000000 S
atom 31.2881667500000020 25.9312244900000053 61.5689816699999994 Mo
atom 32.8649938500000047 26.8414245200000003 63.1379633399999989 S
atom 32.8649938500000047 26.8414245200000003 60.0000000000000000 S
atom 32.8651452200000023 28.6622778300000007 61.5689816699999994 Mo
atom 34.4419723200000050 29.5724778599999993 63.1379633399999989 S
atom 34.4419723200000050 29.5724778599999993 60.0000000000000000 S
atom 37.5958024800000032 31.3933311699999997 61.5689816699999994 Mo
atom 26.5568018200000004 10.4551044799999993 63.1379633399999989 S
atom 26.5568018200000004 10.4551044799999993 60.0000000000000000 S
atom 26.5569531900000015 12.2759577899999996 61.5689816699999994 Mo
atom 28.1337802900000007 13.1861578200000000 63.1379633399999989 S
atom 28.1337802900000007 13.1861578200000000 60.0000000000000000 S
atom 28.1339316600000018 15.0070111299999986 61.5689816699999994 Mo
atom 29.7107587600000009 15.9172111600000008 63.1379633399999989 S
atom 29.7107587600000009 15.9172111600000008 60.0000000000000000 S
atom 29.7109101300000020 17.7380644700000012 61.5689816699999994 Mo
atom 31.2877372300000012 18.6482645000000034 63.1379633399999989 S
atom 31.2877372300000012 18.6482645000000034 60.0000000000000000 S
atom 31.2878886000000023 20.4691178100000002 61.5689816699999994 Mo
atom 32.8647157000000050 21.3793178399999988 63.1379633399999989 S
atom 32.8647157000000050 21.3793178399999988 60.0000000000000000 S
atom 32.8648670700000025 23.2001711500000027 61.5689816699999994 Mo
atom 34.4416941700000052 24.1103711799999978 63.1379633399999989 S
atom 34.4416941700000052 24.1103711799999978 60.0000000000000000 S
atom 34.4418455400000028 25.9312244900000053 61.5689816699999994 Mo
atom 36.0186726400000055 26.8414245200000003 63.1379633399999989 S
atom 36.0186726400000055 26.8414245200000003 60.0000000000000000 S
atom 36.0188240100000030 28.6622778300000007 61.5689816699999994 Mo
atom 37.5956511100000057 29.5724778599999993 63.1379633399999989 S
atom 37.5956511100000057 29.5724778599999993 60.0000000000000000 S
atom 40.7494812700000040 31.3933311699999997 61.5689816699999994 Mo
atom 29.7104806100000012 10.4551044799999993 63.1379633399999989 S
atom 29.7104806100000012 10.4551044799999993 60.0000000000000000 S
atom 29.7106319799999987 12.2759577899999996 61.5689816699999994 Mo
atom 31.2874590800000014 13.1861578200000000 63.1379633399999989 S
atom 31.2874590800000014 13.1861578200000000 60.0000000000000000 S
atom 31.2876104499999990 15.0070111299999986 61.5689816699999994 Mo
atom 32.8644375500000052 15.9172111600000008 63.1379633399999989 S
atom 32.8644375500000052 15.9172111600000008 60.0000000000000000 S
atom 32.8645889200000028 17.7380644700000012 61.5689816699999994 Mo
atom 34.4414160200000055 18.6482645000000034 63.1379633399999989 S
atom 34.4414160200000055 18.6482645000000034 60.0000000000000000 S
atom 34.4415673900000030 20.4691178100000002 61.5689816699999994 Mo
atom 36.0183944900000057 21.3793178399999988 63.1379633399999989 S
atom 36.0183944900000057 21.3793178399999988 60.0000000000000000 S
atom 36.0185458600000032 23.2001711500000027 61.5689816699999994 Mo
atom 37.5953729600000059 24.1103711799999978 63.1379633399999989 S
atom 37.5953729600000059 24.1103711799999978 60.0000000000000000 S
atom 37.5955243300000035 25.9312244900000053 61.5689816699999994 Mo
atom 39.1723514300000062 26.8414245200000003 63.1379633399999989 S
atom 39.1723514300000062 26.8414245200000003 60.0000000000000000 S
atom 39.1725028000000037 28.6622778300000007 61.5689816699999994 Mo
atom 40.7493298999999993 29.5724778599999993 63.1379633399999989 S
atom 40.7493298999999993 29.5724778599999993 60.0000000000000000 S
atom 43.9031600600000047 31.3933311699999997 61.5689816699999994 Mo
atom 32.8641593999999984 10.4551044799999993 63.1379633399999989 S
atom 32.8641593999999984 10.4551044799999993 60.0000000000000000 S
atom 32.8643107700000030 12.2759577899999996 61.5689816699999994 Mo
atom 34.4411378699999986 13.1861578200000000 63.1379633399999989 S
atom 34.4411378699999986 13.1861578200000000 60.0000000000000000 S
atom 34.4412892400000032 15.0070111299999986 61.5689816699999994 Mo
atom 36.0181163399999988 15.9172111600000008 63.1379633399999989 S
atom 36.0181163399999988 15.9172111600000008 60.0000000000000000 S
atom 36.0182677100000035 17.7380644700000012 61.5689816699999994 Mo
atom 37.5950948099999991 18.6482645000000034 63.1379633399999989 S
atom 37.5950948099999991 18.6482645000000034 60.0000000000000000 S
atom 37.5952461800000037 20.4691178100000002 61.5689816699999994 Mo
atom 39.1720732799999993 21.3793178399999988 63.1379633399999989 S
atom 39.1720732799999993 21.3793178399999988 60.0000000000000000 S
atom 39.1722246500000040 23.2001711500000027 61.5689816699999994 Mo
atom 40.7490517499999996 24.1103711799999978 63.1379633399999989 S
atom 40.7490517499999996 24.1103711799999978 60.0000000000000000 S
atom 40.7492031200000042 25.9312244900000053 61.5689816699999994 Mo
atom 42.3260302199999998 26.8414245200000003 63.1379633399999989 S
atom 42.3260302199999998 26.8414245200000003 60.0000000000000000 S
atom 42.3261815899999974 28.6622778300000007 61.5689816699999994 Mo
atom 43.9030086900000001 29.5724778599999993 63.1379633399999989 S
atom 43.9030086900000001 29.5724778599999993 60.0000000000000000 S
