#=======================================================
# FHI-aims file: geometry_mos2.in
# Created using the Atomic Simulation Environment (ASE)
# Wed Jan 26 10:56:56 2022
#=======================================================
lattice_vector 25.2294303199999987 0.0000000000000000 0.0000000000000000 
lattice_vector 12.6158277600000002 21.8484267199999991 0.0000000000000000 
lattice_vector 0.0000000000000000 0.0000000000000000 103.1379633399999989 
atom 44.0568388500000054 28.3933311699999997 58.5689816699999994 Mo
atom 7.7884078700000003 7.4551044800000001 60.1379633399999989 S
atom 7.7884078700000003 7.4551044800000001 57.0000000000000000 S
atom 33.0179895600000037 9.2759577899999996 58.5689816699999994 Mo
atom 9.3653863400000006 10.1861578200000000 60.1379633399999989 S
atom 9.3653863400000006 10.1861578200000000 57.0000000000000000 S
atom 34.5949680300000040 12.0070111299999986 58.5689816699999994 Mo
atom 10.9423648100000008 12.9172111600000008 60.1379633399999989 S
atom 10.9423648100000008 12.9172111600000008 57.0000000000000000 S
atom 36.1719465000000042 14.7380644700000012 58.5689816699999994 Mo
atom 12.5193432800000011 15.6482645000000016 60.1379633399999989 S
atom 12.5193432800000011 15.6482645000000016 57.0000000000000000 S
atom 37.7489249700000045 17.4691178100000002 58.5689816699999994 Mo
atom 14.0963217500000013 18.3793178399999988 60.1379633399999989 S
atom 14.0963217500000013 18.3793178399999988 57.0000000000000000 S
atom 39.3259034400000047 20.2001711500000027 58.5689816699999994 Mo
atom 15.6733002199999998 21.1103711799999978 60.1379633399999989 S
atom 15.6733002199999998 21.1103711799999978 57.0000000000000000 S
atom 40.9028819099999978 22.9312244900000053 58.5689816699999994 Mo
atom 17.2502786900000018 23.8414245200000003 60.1379633399999989 S
atom 17.2502786900000018 23.8414245200000003 57.0000000000000000 S
atom 42.4798603799999981 25.6622778300000007 58.5689816699999994 Mo
atom 18.8272571600000020 26.5724778599999993 60.1379633399999989 S
atom 18.8272571600000020 26.5724778599999993 57.0000000000000000 S
atom 21.9810873200000003 28.3933311699999997 58.5689816699999994 Mo
atom 10.9420866600000011 7.4551044800000001 60.1379633399999989 S
atom 10.9420866600000011 7.4551044800000001 57.0000000000000000 S
atom 10.9422380300000004 9.2759577899999996 58.5689816699999994 Mo
atom 12.5190651300000013 10.1861578200000000 60.1379633399999989 S
atom 12.5190651300000013 10.1861578200000000 57.0000000000000000 S
atom 12.5192164999999989 12.0070111299999986 58.5689816699999994 Mo
atom 14.0960435999999998 12.9172111600000008 60.1379633399999989 S
atom 14.0960435999999998 12.9172111600000008 57.0000000000000000 S
atom 14.0961949700000009 14.7380644700000012 58.5689816699999994 Mo
atom 15.6730220700000000 15.6482645000000016 60.1379633399999989 S
atom 15.6730220700000000 15.6482645000000016 57.0000000000000000 S
atom 15.6731734399999993 17.4691178100000002 58.5689816699999994 Mo
atom 17.2500005400000020 18.3793178399999988 60.1379633399999989 S
atom 17.2500005400000020 18.3793178399999988 57.0000000000000000 S
atom 17.2501519099999996 20.2001711500000027 58.5689816699999994 Mo
atom 18.8269790100000023 21.1103711799999978 60.1379633399999989 S
atom 18.8269790100000023 21.1103711799999978 57.0000000000000000 S
atom 18.8271303799999998 22.9312244900000053 58.5689816699999994 Mo
atom 20.4039574800000025 23.8414245200000003 60.1379633399999989 S
atom 20.4039574800000025 23.8414245200000003 57.0000000000000000 S
atom 20.4041088500000001 25.6622778300000007 58.5689816699999994 Mo
atom 21.9809359500000028 26.5724778599999993 60.1379633399999989 S
atom 21.9809359500000028 26.5724778599999993 57.0000000000000000 S
atom 25.1347661100000010 28.3933311699999997 58.5689816699999994 Mo
atom 14.0957654500000000 7.4551044800000001 60.1379633399999989 S
atom 14.0957654500000000 7.4551044800000001 57.0000000000000000 S
atom 14.0959168200000011 9.2759577899999996 58.5689816699999994 Mo
atom 15.6727439200000003 10.1861578200000000 60.1379633399999989 S
atom 15.6727439200000003 10.1861578200000000 57.0000000000000000 S
atom 15.6728952899999996 12.0070111299999986 58.5689816699999994 Mo
atom 17.2497223900000023 12.9172111600000008 60.1379633399999989 S
atom 17.2497223900000023 12.9172111600000008 57.0000000000000000 S
atom 17.2498737599999998 14.7380644700000012 58.5689816699999994 Mo
atom 18.8267008600000025 15.6482645000000016 60.1379633399999989 S
atom 18.8267008600000025 15.6482645000000016 57.0000000000000000 S
atom 18.8268522300000001 17.4691178100000002 58.5689816699999994 Mo
atom 20.4036793299999992 18.3793178399999988 60.1379633399999989 S
atom 20.4036793299999992 18.3793178399999988 57.0000000000000000 S
atom 20.4038307000000003 20.2001711500000027 58.5689816699999994 Mo
atom 21.9806578000000030 21.1103711799999978 60.1379633399999989 S
atom 21.9806578000000030 21.1103711799999978 57.0000000000000000 S
atom 21.9808091700000006 22.9312244900000053 58.5689816699999994 Mo
atom 23.5576362699999997 23.8414245200000003 60.1379633399999989 S
atom 23.5576362699999997 23.8414245200000003 57.0000000000000000 S
atom 23.5577876400000008 25.6622778300000007 58.5689816699999994 Mo
atom 25.1346147400000000 26.5724778599999993 60.1379633399999989 S
atom 25.1346147400000000 26.5724778599999993 57.0000000000000000 S
atom 28.2884448999999982 28.3933311699999997 58.5689816699999994 Mo
atom 17.2494442399999954 7.4551044800000001 60.1379633399999989 S
atom 17.2494442399999954 7.4551044800000001 57.0000000000000000 S
atom 17.2495956100000001 9.2759577899999996 58.5689816699999994 Mo
atom 18.8264227099999992 10.1861578200000000 60.1379633399999989 S
atom 18.8264227099999992 10.1861578200000000 57.0000000000000000 S
atom 18.8265740800000003 12.0070111299999986 58.5689816699999994 Mo
atom 20.4034011799999995 12.9172111600000008 60.1379633399999989 S
atom 20.4034011799999995 12.9172111600000008 57.0000000000000000 S
atom 20.4035525500000006 14.7380644700000012 58.5689816699999994 Mo
atom 21.9803796499999962 15.6482645000000016 60.1379633399999989 S
atom 21.9803796499999962 15.6482645000000016 57.0000000000000000 S
atom 21.9805310200000008 17.4691178100000002 58.5689816699999994 Mo
atom 23.5573581200000000 18.3793178399999988 60.1379633399999989 S
atom 23.5573581200000000 18.3793178399999988 57.0000000000000000 S
atom 23.5575094900000011 20.2001711500000027 58.5689816699999994 Mo
atom 25.1343365900000038 21.1103711799999978 60.1379633399999989 S
atom 25.1343365900000038 21.1103711799999978 57.0000000000000000 S
atom 25.1344879600000013 22.9312244900000053 58.5689816699999994 Mo
atom 26.7113150600000004 23.8414245200000003 60.1379633399999989 S
atom 26.7113150600000004 23.8414245200000003 57.0000000000000000 S
atom 26.7114664300000015 25.6622778300000007 58.5689816699999994 Mo
atom 28.2882935300000007 26.5724778599999993 60.1379633399999989 S
atom 28.2882935300000007 26.5724778599999993 57.0000000000000000 S
atom 31.4421236900000025 28.3933311699999997 58.5689816699999994 Mo
atom 20.4031230299999962 7.4551044800000001 60.1379633399999989 S
atom 20.4031230299999962 7.4551044800000001 57.0000000000000000 S
atom 20.4032744000000008 9.2759577899999996 58.5689816699999994 Mo
atom 21.9801015000000000 10.1861578200000000 60.1379633399999989 S
atom 21.9801015000000000 10.1861578200000000 57.0000000000000000 S
atom 21.9802528700000011 12.0070111299999986 58.5689816699999994 Mo
atom 23.5570799700000038 12.9172111600000008 60.1379633399999989 S
atom 23.5570799700000038 12.9172111600000008 57.0000000000000000 S
atom 23.5572313400000013 14.7380644700000012 58.5689816699999994 Mo
atom 25.1340584400000004 15.6482645000000016 60.1379633399999989 S
atom 25.1340584400000004 15.6482645000000016 57.0000000000000000 S
atom 25.1342098100000015 17.4691178100000002 58.5689816699999994 Mo
atom 26.7110369100000007 18.3793178399999988 60.1379633399999989 S
atom 26.7110369100000007 18.3793178399999988 57.0000000000000000 S
atom 26.7111882800000018 20.2001711500000027 58.5689816699999994 Mo
atom 28.2880153800000009 21.1103711799999978 60.1379633399999989 S
atom 28.2880153800000009 21.1103711799999978 57.0000000000000000 S
atom 28.2881667500000020 22.9312244900000053 58.5689816699999994 Mo
atom 29.8649938500000047 23.8414245200000003 60.1379633399999989 S
atom 29.8649938500000047 23.8414245200000003 57.0000000000000000 S
atom 29.8651452200000023 25.6622778300000007 58.5689816699999994 Mo
atom 31.4419723200000014 26.5724778599999993 60.1379633399999989 S
atom 31.4419723200000014 26.5724778599999993 57.0000000000000000 S
atom 34.5958024800000032 28.3933311699999997 58.5689816699999994 Mo
atom 23.5568018200000004 7.4551044800000001 60.1379633399999989 S
atom 23.5568018200000004 7.4551044800000001 57.0000000000000000 S
atom 23.5569531900000015 9.2759577899999996 58.5689816699999994 Mo
atom 25.1337802900000007 10.1861578200000000 60.1379633399999989 S
atom 25.1337802900000007 10.1861578200000000 57.0000000000000000 S
atom 25.1339316600000018 12.0070111299999986 58.5689816699999994 Mo
atom 26.7107587600000009 12.9172111600000008 60.1379633399999989 S
atom 26.7107587600000009 12.9172111600000008 57.0000000000000000 S
atom 26.7109101300000020 14.7380644700000012 58.5689816699999994 Mo
atom 28.2877372300000012 15.6482645000000016 60.1379633399999989 S
atom 28.2877372300000012 15.6482645000000016 57.0000000000000000 S
atom 28.2878886000000023 17.4691178100000002 58.5689816699999994 Mo
atom 29.8647157000000014 18.3793178399999988 60.1379633399999989 S
atom 29.8647157000000014 18.3793178399999988 57.0000000000000000 S
atom 29.8648670700000025 20.2001711500000027 58.5689816699999994 Mo
atom 31.4416941700000052 21.1103711799999978 60.1379633399999989 S
atom 31.4416941700000052 21.1103711799999978 57.0000000000000000 S
atom 31.4418455400000028 22.9312244900000053 58.5689816699999994 Mo
atom 33.0186726400000055 23.8414245200000003 60.1379633399999989 S
atom 33.0186726400000055 23.8414245200000003 57.0000000000000000 S
atom 33.0188240100000030 25.6622778300000007 58.5689816699999994 Mo
atom 34.5956511100000057 26.5724778599999993 60.1379633399999989 S
atom 34.5956511100000057 26.5724778599999993 57.0000000000000000 S
atom 37.7494812700000040 28.3933311699999997 58.5689816699999994 Mo
atom 26.7104806100000012 7.4551044800000001 60.1379633399999989 S
atom 26.7104806100000012 7.4551044800000001 57.0000000000000000 S
atom 26.7106319799999987 9.2759577899999996 58.5689816699999994 Mo
atom 28.2874590800000014 10.1861578200000000 60.1379633399999989 S
atom 28.2874590800000014 10.1861578200000000 57.0000000000000000 S
atom 28.2876104499999990 12.0070111299999986 58.5689816699999994 Mo
atom 29.8644375500000017 12.9172111600000008 60.1379633399999989 S
atom 29.8644375500000017 12.9172111600000008 57.0000000000000000 S
atom 29.8645889200000028 14.7380644700000012 58.5689816699999994 Mo
atom 31.4414160200000019 15.6482645000000016 60.1379633399999989 S
atom 31.4414160200000019 15.6482645000000016 57.0000000000000000 S
atom 31.4415673899999994 17.4691178100000002 58.5689816699999994 Mo
atom 33.0183944900000057 18.3793178399999988 60.1379633399999989 S
atom 33.0183944900000057 18.3793178399999988 57.0000000000000000 S
atom 33.0185458600000032 20.2001711500000027 58.5689816699999994 Mo
atom 34.5953729600000059 21.1103711799999978 60.1379633399999989 S
atom 34.5953729600000059 21.1103711799999978 57.0000000000000000 S
atom 34.5955243300000035 22.9312244900000053 58.5689816699999994 Mo
atom 36.1723514300000062 23.8414245200000003 60.1379633399999989 S
atom 36.1723514300000062 23.8414245200000003 57.0000000000000000 S
atom 36.1725028000000037 25.6622778300000007 58.5689816699999994 Mo
atom 37.7493298999999993 26.5724778599999993 60.1379633399999989 S
atom 37.7493298999999993 26.5724778599999993 57.0000000000000000 S
atom 40.9031600600000047 28.3933311699999997 58.5689816699999994 Mo
atom 29.8641593999999984 7.4551044800000001 60.1379633399999989 S
atom 29.8641593999999984 7.4551044800000001 57.0000000000000000 S
atom 29.8643107700000030 9.2759577899999996 58.5689816699999994 Mo
atom 31.4411378699999986 10.1861578200000000 60.1379633399999989 S
atom 31.4411378699999986 10.1861578200000000 57.0000000000000000 S
atom 31.4412892400000032 12.0070111299999986 58.5689816699999994 Mo
atom 33.0181163399999988 12.9172111600000008 60.1379633399999989 S
atom 33.0181163399999988 12.9172111600000008 57.0000000000000000 S
atom 33.0182677100000035 14.7380644700000012 58.5689816699999994 Mo
atom 34.5950948099999991 15.6482645000000016 60.1379633399999989 S
atom 34.5950948099999991 15.6482645000000016 57.0000000000000000 S
atom 34.5952461800000037 17.4691178100000002 58.5689816699999994 Mo
atom 36.1720732799999993 18.3793178399999988 60.1379633399999989 S
atom 36.1720732799999993 18.3793178399999988 57.0000000000000000 S
atom 36.1722246500000040 20.2001711500000027 58.5689816699999994 Mo
atom 37.7490517499999996 21.1103711799999978 60.1379633399999989 S
atom 37.7490517499999996 21.1103711799999978 57.0000000000000000 S
atom 37.7492031200000042 22.9312244900000053 58.5689816699999994 Mo
atom 39.3260302199999998 23.8414245200000003 60.1379633399999989 S
atom 39.3260302199999998 23.8414245200000003 57.0000000000000000 S
atom 39.3261815899999974 25.6622778300000007 58.5689816699999994 Mo
atom 40.9030086900000001 26.5724778599999993 60.1379633399999989 S
atom 40.9030086900000001 26.5724778599999993 57.0000000000000000 S
