
  lattice_vector         3.15367879        0.000        0.00000000
  lattice_vector         1.57697847        2.73105334        0.00000000
  lattice_vector         0.00000000        0.00000000       99.83551391

            atom        -0.78841923       -0.45509555       -0.00000000  Mo
            atom         0.78840787        0.45510448        1.56898167  S
            atom         0.78840787        0.45510448       -1.56898167  S
