#
lattice_vector  26.28331574 0.00000000 0.00000000
lattice_vector  13.14165787 22.76201912 0.00000000
lattice_vector  0.00000000 0.00000000 107.15341248
#
atom 0.00000000 0.00000000 50.00000034 Au
constrain_relaxation .true.
atom 2.92036839 0.00000000 50.00000034 Au
constrain_relaxation .true.
atom 5.84073677 0.00000000 50.00000034 Au
constrain_relaxation .true.
atom 8.76110516 0.00000000 50.00000034 Au
constrain_relaxation .true.
atom 11.68147355 0.00000000 50.00000034 Au
constrain_relaxation .true.
atom 14.60184219 0.00000000 50.00000034 Au
constrain_relaxation .true.
atom 17.52221058 0.00000000 50.00000034 Au
constrain_relaxation .true.
atom 20.44257897 0.00000000 50.00000034 Au
constrain_relaxation .true.
atom 23.36294735 0.00000000 50.00000034 Au
constrain_relaxation .true.
atom 1.46018419 2.52911321 50.00000034 Au
constrain_relaxation .true.
atom 4.38055258 2.52911321 50.00000034 Au
constrain_relaxation .true.
atom 7.30092097 2.52911321 50.00000034 Au
constrain_relaxation .true.
atom 10.22128935 2.52911321 50.00000034 Au
constrain_relaxation .true.
atom 13.14165774 2.52911321 50.00000034 Au
constrain_relaxation .true.
atom 16.06202639 2.52911321 50.00000034 Au
constrain_relaxation .true.
atom 18.98239477 2.52911321 50.00000034 Au
constrain_relaxation .true.
atom 21.90276316 2.52911321 50.00000034 Au
constrain_relaxation .true.
atom 24.82313155 2.52911321 50.00000034 Au
constrain_relaxation .true.
atom 2.92036839 5.05822642 50.00000034 Au
constrain_relaxation .true.
atom 5.84073677 5.05822642 50.00000034 Au
constrain_relaxation .true.
atom 8.76110516 5.05822642 50.00000034 Au
constrain_relaxation .true.
atom 11.68147355 5.05822642 50.00000034 Au
constrain_relaxation .true.
atom 14.60184193 5.05822642 50.00000034 Au
constrain_relaxation .true.
atom 17.52221058 5.05822642 50.00000034 Au
constrain_relaxation .true.
atom 20.44257897 5.05822642 50.00000034 Au
constrain_relaxation .true.
atom 23.36294735 5.05822642 50.00000034 Au
constrain_relaxation .true.
atom 26.28331574 5.05822642 50.00000034 Au
constrain_relaxation .true.
atom 4.38055258 7.58733963 50.00000034 Au
constrain_relaxation .true.
atom 7.30092097 7.58733963 50.00000034 Au
constrain_relaxation .true.
atom 10.22128935 7.58733963 50.00000034 Au
constrain_relaxation .true.
atom 13.14165774 7.58733963 50.00000034 Au
constrain_relaxation .true.
atom 16.06202612 7.58733963 50.00000034 Au
constrain_relaxation .true.
atom 18.98239477 7.58733963 50.00000034 Au
constrain_relaxation .true.
atom 21.90276316 7.58733963 50.00000034 Au
constrain_relaxation .true.
atom 24.82313155 7.58733963 50.00000034 Au
constrain_relaxation .true.
atom 27.74349993 7.58733963 50.00000034 Au
constrain_relaxation .true.
atom 5.84073677 10.11645284 50.00000034 Au
constrain_relaxation .true.
atom 8.76110516 10.11645284 50.00000034 Au
constrain_relaxation .true.
atom 11.68147355 10.11645284 50.00000034 Au
constrain_relaxation .true.
atom 14.60184193 10.11645284 50.00000034 Au
constrain_relaxation .true.
atom 17.52221032 10.11645284 50.00000034 Au
constrain_relaxation .true.
atom 20.44257897 10.11645284 50.00000034 Au
constrain_relaxation .true.
atom 23.36294735 10.11645284 50.00000034 Au
constrain_relaxation .true.
atom 26.28331574 10.11645284 50.00000034 Au
constrain_relaxation .true.
atom 29.20368413 10.11645284 50.00000034 Au
constrain_relaxation .true.
atom 7.30092110 12.64556628 50.00000034 Au
constrain_relaxation .true.
atom 10.22128948 12.64556628 50.00000034 Au
constrain_relaxation .true.
atom 13.14165787 12.64556628 50.00000034 Au
constrain_relaxation .true.
atom 16.06202626 12.64556628 50.00000034 Au
constrain_relaxation .true.
atom 18.98239464 12.64556628 50.00000034 Au
constrain_relaxation .true.
atom 21.90276329 12.64556628 50.00000034 Au
constrain_relaxation .true.
atom 24.82313168 12.64556628 50.00000034 Au
constrain_relaxation .true.
atom 27.74350006 12.64556628 50.00000034 Au
constrain_relaxation .true.
atom 30.66386845 12.64556628 50.00000034 Au
constrain_relaxation .true.
atom 8.76110529 15.17467949 50.00000034 Au
constrain_relaxation .true.
atom 11.68147368 15.17467949 50.00000034 Au
constrain_relaxation .true.
atom 14.60184206 15.17467949 50.00000034 Au
constrain_relaxation .true.
atom 17.52221045 15.17467949 50.00000034 Au
constrain_relaxation .true.
atom 20.44257884 15.17467949 50.00000034 Au
constrain_relaxation .true.
atom 23.36294749 15.17467949 50.00000034 Au
constrain_relaxation .true.
atom 26.28331587 15.17467949 50.00000034 Au
constrain_relaxation .true.
atom 29.20368426 15.17467949 50.00000034 Au
constrain_relaxation .true.
atom 32.12405264 15.17467949 50.00000034 Au
constrain_relaxation .true.
atom 10.22128948 17.70379270 50.00000034 Au
constrain_relaxation .true.
atom 13.14165787 17.70379270 50.00000034 Au
constrain_relaxation .true.
atom 16.06202626 17.70379270 50.00000034 Au
constrain_relaxation .true.
atom 18.98239464 17.70379270 50.00000034 Au
constrain_relaxation .true.
atom 21.90276303 17.70379270 50.00000034 Au
constrain_relaxation .true.
atom 24.82313168 17.70379270 50.00000034 Au
constrain_relaxation .true.
atom 27.74350006 17.70379270 50.00000034 Au
constrain_relaxation .true.
atom 30.66386845 17.70379270 50.00000034 Au
constrain_relaxation .true.
atom 33.58423684 17.70379270 50.00000034 Au
constrain_relaxation .true.
atom 11.68147368 20.23290591 50.00000034 Au
constrain_relaxation .true.
atom 14.60184206 20.23290591 50.00000034 Au
constrain_relaxation .true.
atom 17.52221045 20.23290591 50.00000034 Au
constrain_relaxation .true.
atom 20.44257884 20.23290591 50.00000034 Au
constrain_relaxation .true.
atom 23.36294722 20.23290591 50.00000034 Au
constrain_relaxation .true.
atom 26.28331587 20.23290591 50.00000034 Au
constrain_relaxation .true.
atom 29.20368426 20.23290591 50.00000034 Au
constrain_relaxation .true.
atom 32.12405264 20.23290591 50.00000034 Au
constrain_relaxation .true.
atom 35.04442103 20.23290591 50.00000034 Au
constrain_relaxation .true.
atom 1.46018432 0.84303781 52.38447130 Au
constrain_relaxation .true.
atom 4.38055271 0.84303781 52.38447130 Au
constrain_relaxation .true.
atom 7.30092110 0.84303781 52.38447130 Au
constrain_relaxation .true.
atom 10.22128948 0.84303781 52.38447130 Au
constrain_relaxation .true.
atom 13.14165787 0.84303781 52.38447130 Au
constrain_relaxation .true.
atom 16.06202626 0.84303781 52.38447130 Au
constrain_relaxation .true.
atom 18.98239464 0.84303781 52.38447130 Au
constrain_relaxation .true.
atom 21.90276303 0.84303781 52.38447130 Au
constrain_relaxation .true.
atom 24.82313168 0.84303781 52.38447130 Au
constrain_relaxation .true.
atom 2.92036852 3.37215102 52.38447130 Au
constrain_relaxation .true.
atom 5.84073690 3.37215102 52.38447130 Au
constrain_relaxation .true.
atom 8.76110529 3.37215102 52.38447130 Au
constrain_relaxation .true.
atom 11.68147368 3.37215102 52.38447130 Au
constrain_relaxation .true.
atom 14.60184206 3.37215102 52.38447130 Au
constrain_relaxation .true.
atom 17.52221045 3.37215102 52.38447130 Au
constrain_relaxation .true.
atom 20.44257884 3.37215102 52.38447130 Au
constrain_relaxation .true.
atom 23.36294722 3.37215102 52.38447130 Au
constrain_relaxation .true.
atom 26.28331587 3.37215102 52.38447130 Au
constrain_relaxation .true.
atom 4.38055271 5.90126423 52.38447130 Au
constrain_relaxation .true.
atom 7.30092110 5.90126423 52.38447130 Au
constrain_relaxation .true.
atom 10.22128948 5.90126423 52.38447130 Au
constrain_relaxation .true.
atom 13.14165787 5.90126423 52.38447130 Au
constrain_relaxation .true.
atom 16.06202626 5.90126423 52.38447130 Au
constrain_relaxation .true.
atom 18.98239464 5.90126423 52.38447130 Au
constrain_relaxation .true.
atom 21.90276303 5.90126423 52.38447130 Au
constrain_relaxation .true.
atom 24.82313142 5.90126423 52.38447130 Au
constrain_relaxation .true.
atom 27.74350006 5.90126423 52.38447130 Au
constrain_relaxation .true.
atom 5.84073690 8.43037744 52.38447130 Au
constrain_relaxation .true.
atom 8.76110529 8.43037744 52.38447130 Au
constrain_relaxation .true.
atom 11.68147368 8.43037744 52.38447130 Au
constrain_relaxation .true.
atom 14.60184206 8.43037744 52.38447130 Au
constrain_relaxation .true.
atom 17.52221045 8.43037744 52.38447130 Au
constrain_relaxation .true.
atom 20.44257884 8.43037744 52.38447130 Au
constrain_relaxation .true.
atom 23.36294722 8.43037744 52.38447130 Au
constrain_relaxation .true.
atom 26.28331561 8.43037744 52.38447130 Au
constrain_relaxation .true.
atom 29.20368426 8.43037744 52.38447130 Au
constrain_relaxation .true.
atom 7.30092110 10.95949065 52.38447130 Au
constrain_relaxation .true.
atom 10.22128948 10.95949065 52.38447130 Au
constrain_relaxation .true.
atom 13.14165787 10.95949065 52.38447130 Au
constrain_relaxation .true.
atom 16.06202626 10.95949065 52.38447130 Au
constrain_relaxation .true.
atom 18.98239464 10.95949065 52.38447130 Au
constrain_relaxation .true.
atom 21.90276303 10.95949065 52.38447130 Au
constrain_relaxation .true.
atom 24.82313142 10.95949065 52.38447130 Au
constrain_relaxation .true.
atom 27.74349980 10.95949065 52.38447130 Au
constrain_relaxation .true.
atom 30.66386845 10.95949065 52.38447130 Au
constrain_relaxation .true.
atom 8.76110529 13.48860386 52.38447130 Au
constrain_relaxation .true.
atom 11.68147368 13.48860386 52.38447130 Au
constrain_relaxation .true.
atom 14.60184206 13.48860386 52.38447130 Au
constrain_relaxation .true.
atom 17.52221045 13.48860386 52.38447130 Au
constrain_relaxation .true.
atom 20.44257884 13.48860386 52.38447130 Au
constrain_relaxation .true.
atom 23.36294722 13.48860386 52.38447130 Au
constrain_relaxation .true.
atom 26.28331561 13.48860386 52.38447130 Au
constrain_relaxation .true.
atom 29.20368399 13.48860386 52.38447130 Au
constrain_relaxation .true.
atom 32.12405264 13.48860386 52.38447130 Au
constrain_relaxation .true.
atom 10.22128948 16.01771707 52.38447130 Au
constrain_relaxation .true.
atom 13.14165787 16.01771707 52.38447130 Au
constrain_relaxation .true.
atom 16.06202626 16.01771707 52.38447130 Au
constrain_relaxation .true.
atom 18.98239464 16.01771707 52.38447130 Au
constrain_relaxation .true.
atom 21.90276303 16.01771707 52.38447130 Au
constrain_relaxation .true.
atom 24.82313142 16.01771707 52.38447130 Au
constrain_relaxation .true.
atom 27.74349980 16.01771707 52.38447130 Au
constrain_relaxation .true.
atom 30.66386819 16.01771707 52.38447130 Au
constrain_relaxation .true.
atom 33.58423684 16.01771707 52.38447130 Au
constrain_relaxation .true.
atom 11.68147368 18.54683028 52.38447130 Au
constrain_relaxation .true.
atom 14.60184206 18.54683028 52.38447130 Au
constrain_relaxation .true.
atom 17.52221045 18.54683028 52.38447130 Au
constrain_relaxation .true.
atom 20.44257884 18.54683028 52.38447130 Au
constrain_relaxation .true.
atom 23.36294722 18.54683028 52.38447130 Au
constrain_relaxation .true.
atom 26.28331561 18.54683028 52.38447130 Au
constrain_relaxation .true.
atom 29.20368399 18.54683028 52.38447130 Au
constrain_relaxation .true.
atom 32.12405238 18.54683028 52.38447130 Au
constrain_relaxation .true.
atom 35.04442103 18.54683028 52.38447130 Au
constrain_relaxation .true.
atom 13.14165800 21.07594372 52.38447130 Au
constrain_relaxation .true.
atom 16.06202639 21.07594372 52.38447130 Au
constrain_relaxation .true.
atom 18.98239477 21.07594372 52.38447130 Au
constrain_relaxation .true.
atom 21.90276316 21.07594372 52.38447130 Au
constrain_relaxation .true.
atom 24.82313155 21.07594372 52.38447130 Au
constrain_relaxation .true.
atom 27.74349993 21.07594372 52.38447130 Au
constrain_relaxation .true.
atom 30.66386832 21.07594372 52.38447130 Au
constrain_relaxation .true.
atom 33.58423671 21.07594372 52.38447130 Au
constrain_relaxation .true.
atom 36.50460536 21.07594372 52.38447130 Au
constrain_relaxation .true.
atom 26.28331561 1.68607540 54.76894118 Au
atom 2.92036825 1.68607540 54.76894118 Au
atom 5.84073690 1.68607540 54.76894118 Au
atom 8.76110529 1.68607540 54.76894118 Au
atom 11.68147368 1.68607540 54.76894118 Au
atom 14.60184206 1.68607540 54.76894118 Au
atom 17.52221045 1.68607540 54.76894118 Au
atom 20.44257884 1.68607540 54.76894118 Au
atom 23.36294722 1.68607540 54.76894118 Au
atom 27.74349993 4.21518884 54.76894118 Au
atom 4.38055258 4.21518884 54.76894118 Au
atom 7.30092123 4.21518884 54.76894118 Au
atom 10.22128962 4.21518884 54.76894118 Au
atom 13.14165800 4.21518884 54.76894118 Au
atom 16.06202639 4.21518884 54.76894118 Au
atom 18.98239477 4.21518884 54.76894118 Au
atom 21.90276316 4.21518884 54.76894118 Au
atom 24.82313155 4.21518884 54.76894118 Au
atom 29.20368413 6.74430205 54.76894118 Au
atom 5.84073677 6.74430205 54.76894118 Au
atom 8.76110542 6.74430205 54.76894118 Au
atom 11.68147381 6.74430205 54.76894118 Au
atom 14.60184219 6.74430205 54.76894118 Au
atom 17.52221058 6.74430205 54.76894118 Au
atom 20.44257897 6.74430205 54.76894118 Au
atom 23.36294735 6.74430205 54.76894118 Au
atom 26.28331574 6.74430205 54.76894118 Au
atom 30.66386832 9.27341526 54.76894118 Au
atom 7.30092097 9.27341526 54.76894118 Au
atom 10.22128962 9.27341526 54.76894118 Au
atom 13.14165800 9.27341526 54.76894118 Au
atom 16.06202639 9.27341526 54.76894118 Au
atom 18.98239477 9.27341526 54.76894118 Au
atom 21.90276316 9.27341526 54.76894118 Au
atom 24.82313155 9.27341526 54.76894118 Au
atom 27.74349993 9.27341526 54.76894118 Au
atom 32.12405251 11.80252847 54.76894118 Au
atom 8.76110516 11.80252847 54.76894118 Au
atom 11.68147381 11.80252847 54.76894118 Au
atom 14.60184219 11.80252847 54.76894118 Au
atom 17.52221058 11.80252847 54.76894118 Au
atom 20.44257897 11.80252847 54.76894118 Au
atom 23.36294735 11.80252847 54.76894118 Au
atom 26.28331574 11.80252847 54.76894118 Au
atom 29.20368413 11.80252847 54.76894118 Au
atom 33.58423671 14.33164168 54.76894118 Au
atom 10.22128935 14.33164168 54.76894118 Au
atom 13.14165800 14.33164168 54.76894118 Au
atom 16.06202639 14.33164168 54.76894118 Au
atom 18.98239477 14.33164168 54.76894118 Au
atom 21.90276316 14.33164168 54.76894118 Au
atom 24.82313155 14.33164168 54.76894118 Au
atom 27.74349993 14.33164168 54.76894118 Au
atom 30.66386832 14.33164168 54.76894118 Au
atom 35.04442090 16.86075489 54.76894118 Au
atom 11.68147355 16.86075489 54.76894118 Au
atom 14.60184219 16.86075489 54.76894118 Au
atom 17.52221058 16.86075489 54.76894118 Au
atom 20.44257897 16.86075489 54.76894118 Au
atom 23.36294735 16.86075489 54.76894118 Au
atom 26.28331574 16.86075489 54.76894118 Au
atom 29.20368413 16.86075489 54.76894118 Au
atom 32.12405251 16.86075489 54.76894118 Au
atom 36.50460509 19.38986810 54.76894118 Au
atom 13.14165774 19.38986810 54.76894118 Au
atom 16.06202639 19.38986810 54.76894118 Au
atom 18.98239477 19.38986810 54.76894118 Au
atom 21.90276316 19.38986810 54.76894118 Au
atom 24.82313155 19.38986810 54.76894118 Au
atom 27.74349993 19.38986810 54.76894118 Au
atom 30.66386832 19.38986810 54.76894118 Au
atom 33.58423671 19.38986810 54.76894118 Au
atom 37.96478929 21.91898131 54.76894118 Au
atom 14.60184193 21.91898131 54.76894118 Au
atom 17.52221058 21.91898131 54.76894118 Au
atom 20.44257897 21.91898131 54.76894118 Au
atom 23.36294735 21.91898131 54.76894118 Au
atom 26.28331574 21.91898131 54.76894118 Au
atom 29.20368413 21.91898131 54.76894118 Au
atom 32.12405251 21.91898131 54.76894118 Au
atom 35.04442090 21.91898131 54.76894118 Au
atom 0.00000000 0.00000000 57.15341214 Au
atom 2.92036839 0.00000000 57.15341214 Au
atom 5.84073677 0.00000000 57.15341214 Au
atom 8.76110516 0.00000000 57.15341214 Au
atom 11.68147355 0.00000000 57.15341214 Au
atom 14.60184219 0.00000000 57.15341214 Au
atom 17.52221058 0.00000000 57.15341214 Au
atom 20.44257897 0.00000000 57.15341214 Au
atom 23.36294735 0.00000000 57.15341214 Au
atom 1.46018419 2.52911321 57.15341214 Au
atom 4.38055258 2.52911321 57.15341214 Au
atom 7.30092097 2.52911321 57.15341214 Au
atom 10.22128935 2.52911321 57.15341214 Au
atom 13.14165774 2.52911321 57.15341214 Au
atom 16.06202639 2.52911321 57.15341214 Au
atom 18.98239477 2.52911321 57.15341214 Au
atom 21.90276316 2.52911321 57.15341214 Au
atom 24.82313155 2.52911321 57.15341214 Au
atom 2.92036839 5.05822642 57.15341214 Au
atom 5.84073677 5.05822642 57.15341214 Au
atom 8.76110516 5.05822642 57.15341214 Au
atom 11.68147355 5.05822642 57.15341214 Au
atom 14.60184193 5.05822642 57.15341214 Au
atom 17.52221058 5.05822642 57.15341214 Au
atom 20.44257897 5.05822642 57.15341214 Au
atom 23.36294735 5.05822642 57.15341214 Au
atom 26.28331574 5.05822642 57.15341214 Au
atom 4.38055258 7.58733963 57.15341214 Au
atom 7.30092097 7.58733963 57.15341214 Au
atom 10.22128935 7.58733963 57.15341214 Au
atom 13.14165774 7.58733963 57.15341214 Au
atom 16.06202612 7.58733963 57.15341214 Au
atom 18.98239477 7.58733963 57.15341214 Au
atom 21.90276316 7.58733963 57.15341214 Au
atom 24.82313155 7.58733963 57.15341214 Au
atom 27.74349993 7.58733963 57.15341214 Au
atom 5.84073677 10.11645284 57.15341214 Au
atom 8.76110516 10.11645284 57.15341214 Au
atom 11.68147355 10.11645284 57.15341214 Au
atom 14.60184193 10.11645284 57.15341214 Au
atom 17.52221032 10.11645284 57.15341214 Au
atom 20.44257897 10.11645284 57.15341214 Au
atom 23.36294735 10.11645284 57.15341214 Au
atom 26.28331574 10.11645284 57.15341214 Au
atom 29.20368413 10.11645284 57.15341214 Au
atom 7.30092110 12.64556628 57.15341214 Au
atom 10.22128948 12.64556628 57.15341214 Au
atom 13.14165787 12.64556628 57.15341214 Au
atom 16.06202626 12.64556628 57.15341214 Au
atom 18.98239464 12.64556628 57.15341214 Au
atom 21.90276329 12.64556628 57.15341214 Au
atom 24.82313168 12.64556628 57.15341214 Au
atom 27.74350006 12.64556628 57.15341214 Au
atom 30.66386845 12.64556628 57.15341214 Au
atom 8.76110529 15.17467949 57.15341214 Au
atom 11.68147368 15.17467949 57.15341214 Au
atom 14.60184206 15.17467949 57.15341214 Au
atom 17.52221045 15.17467949 57.15341214 Au
atom 20.44257884 15.17467949 57.15341214 Au
atom 23.36294749 15.17467949 57.15341214 Au
atom 26.28331587 15.17467949 57.15341214 Au
atom 29.20368426 15.17467949 57.15341214 Au
atom 32.12405264 15.17467949 57.15341214 Au
atom 10.22128948 17.70379270 57.15341214 Au
atom 13.14165787 17.70379270 57.15341214 Au
atom 16.06202626 17.70379270 57.15341214 Au
atom 18.98239464 17.70379270 57.15341214 Au
atom 21.90276303 17.70379270 57.15341214 Au
atom 24.82313168 17.70379270 57.15341214 Au
atom 27.74350006 17.70379270 57.15341214 Au
atom 30.66386845 17.70379270 57.15341214 Au
atom 33.58423684 17.70379270 57.15341214 Au
atom 11.68147368 20.23290591 57.15341214 Au
atom 14.60184206 20.23290591 57.15341214 Au
atom 17.52221045 20.23290591 57.15341214 Au
atom 20.44257884 20.23290591 57.15341214 Au
atom 23.36294722 20.23290591 57.15341214 Au
atom 26.28331587 20.23290591 57.15341214 Au
atom 29.20368426 20.23290591 57.15341214 Au
atom 32.12405264 20.23290591 57.15341214 Au
atom 35.04442103 20.23290591 57.15341214 Au
atom 6.47070409 6.81857975 60.84923620 Mo
atom 8.11335021 7.76683978 62.47930213 S
atom 8.11335021 7.76683978 59.21916920 S
atom 8.11341132 9.66383214 60.84923620 Mo
atom 9.75605745 10.61209217 62.47930213 S
atom 9.75605745 10.61209217 59.21916920 S
atom 9.75611856 12.50908453 60.84923620 Mo
atom 11.39876468 13.45734456 62.47930213 S
atom 11.39876468 13.45734456 59.21916920 S
atom 11.39882579 15.35433692 60.84923620 Mo
atom 13.04147192 16.30259695 62.47930213 S
atom 13.04147192 16.30259695 59.21916920 S
atom 13.04153302 18.19958931 60.84923620 Mo
atom 14.68417915 19.14784934 62.47930213 S
atom 14.68417915 19.14784934 59.21916920 S
atom 14.68424026 21.04484170 60.84923620 Mo
atom 16.32688638 21.99310173 62.47930213 S
atom 16.32688638 21.99310173 59.21916920 S
atom 3.18528962 1.12807497 60.84923620 Mo
atom 4.82793575 2.07633500 62.47930213 S
atom 4.82793575 2.07633500 59.21916920 S
atom 4.82799686 3.97332736 60.84923620 Mo
atom 6.47064298 4.92158739 62.47930213 S
atom 6.47064298 4.92158739 59.21916920 S
atom 9.75611856 6.81857975 60.84923620 Mo
atom 11.39876468 7.76683978 62.47930213 S
atom 11.39876468 7.76683978 59.21916920 S
atom 11.39882579 9.66383214 60.84923620 Mo
atom 13.04147192 10.61209217 62.47930213 S
atom 13.04147192 10.61209217 59.21916920 S
atom 13.04153302 12.50908453 60.84923620 Mo
atom 14.68417915 13.45734456 62.47930213 S
atom 14.68417915 13.45734456 59.21916920 S
atom 14.68424026 15.35433692 60.84923620 Mo
atom 16.32688638 16.30259695 62.47930213 S
atom 16.32688638 16.30259695 59.21916920 S
atom 16.32694749 18.19958931 60.84923620 Mo
atom 17.96959362 19.14784934 62.47930213 S
atom 17.96959362 19.14784934 59.21916920 S
atom 17.96965473 21.04484170 60.84923620 Mo
atom 19.61230085 21.99310173 62.47930213 S
atom 19.61230085 21.99310173 59.21916920 S
atom 6.47070409 1.12807497 60.84923620 Mo
atom 8.11335021 2.07633500 62.47930213 S
atom 8.11335021 2.07633500 59.21916920 S
atom 8.11341132 3.97332736 60.84923620 Mo
atom 9.75605745 4.92158739 62.47930213 S
atom 9.75605745 4.92158739 59.21916920 S
atom 13.04153302 6.81857975 60.84923620 Mo
atom 14.68417915 7.76683978 62.47930213 S
atom 14.68417915 7.76683978 59.21916920 S
atom 14.68424026 9.66383214 60.84923620 Mo
atom 16.32688638 10.61209217 62.47930213 S
atom 16.32688638 10.61209217 59.21916920 S
atom 16.32694749 12.50908453 60.84923620 Mo
atom 17.96959362 13.45734456 62.47930213 S
atom 17.96959362 13.45734456 59.21916920 S
atom 17.96965473 15.35433692 60.84923620 Mo
atom 19.61230085 16.30259695 62.47930213 S
atom 19.61230085 16.30259695 59.21916920 S
atom 19.61236196 18.19958931 60.84923620 Mo
atom 21.25500808 19.14784934 62.47930213 S
atom 21.25500808 19.14784934 59.21916920 S
atom 21.25506919 21.04484170 60.84923620 Mo
atom 22.89771532 21.99310173 62.47930213 S
atom 22.89771532 21.99310173 59.21916920 S
atom 9.75611856 1.12807497 60.84923620 Mo
atom 11.39876468 2.07633500 62.47930213 S
atom 11.39876468 2.07633500 59.21916920 S
atom 11.39882579 3.97332736 60.84923620 Mo
atom 13.04147192 4.92158739 62.47930213 S
atom 13.04147192 4.92158739 59.21916920 S
atom 16.32694749 6.81857975 60.84923620 Mo
atom 17.96959362 7.76683978 62.47930213 S
atom 17.96959362 7.76683978 59.21916920 S
atom 17.96965473 9.66383214 60.84923620 Mo
atom 19.61230085 10.61209217 62.47930213 S
atom 19.61230085 10.61209217 59.21916920 S
atom 19.61236196 12.50908453 60.84923620 Mo
atom 21.25500808 13.45734456 62.47930213 S
atom 21.25506919 15.35433692 60.84923620 Mo
atom 22.89771532 16.30259695 62.47930213 S
atom 22.89771532 16.30259695 59.21916920 S
atom 22.89777643 18.19958931 60.84923620 Mo
atom 24.54042255 19.14784934 62.47930213 S
atom 24.54042255 19.14784934 59.21916920 S
atom 24.54048366 21.04484170 60.84923620 Mo
atom 26.18312979 21.99310173 62.47930213 S
atom 26.18312979 21.99310173 59.21916920 S
atom 13.04153302 1.12807497 60.84923620 Mo
atom 14.68417915 2.07633500 62.47930213 S
atom 14.68417915 2.07633500 59.21916920 S
atom 14.68424026 3.97332736 60.84923620 Mo
atom 16.32688638 4.92158739 62.47930213 S
atom 16.32688638 4.92158739 59.21916920 S
atom 19.61236196 6.81857975 60.84923620 Mo
atom 21.25500808 7.76683978 62.47930213 S
atom 21.25500808 7.76683978 59.21916920 S
atom 21.25506919 9.66383214 60.84923620 Mo
atom 22.89771532 10.61209217 62.47930213 S
atom 22.89771532 10.61209217 59.21916920 S
atom 22.89777643 12.50908453 60.84923620 Mo
atom 24.54042255 13.45734456 62.47930213 S
atom 24.54042255 13.45734456 59.21916920 S
atom 24.54048366 15.35433692 60.84923620 Mo
atom 26.18312979 16.30259695 62.47930213 S
atom 26.18312979 16.30259695 59.21916920 S
atom 26.18319089 18.19958931 60.84923620 Mo
atom 27.82583702 19.14784934 62.47930213 S
atom 27.82583702 19.14784934 59.21916920 S
atom 27.82589813 21.04484170 60.84923620 Mo
atom 29.46854425 21.99310173 62.47930213 S
atom 29.46854425 21.99310173 59.21916920 S
atom 16.32694749 1.12807497 60.84923620 Mo
atom 17.96959362 2.07633500 62.47930213 S
atom 17.96959362 2.07633500 59.21916920 S
atom 17.96965473 3.97332736 60.84923620 Mo
atom 19.61230085 4.92158739 62.47930213 S
atom 19.61230085 4.92158739 59.21916920 S
atom 22.89777643 6.81857975 60.84923620 Mo
atom 24.54042255 7.76683978 62.47930213 S
atom 24.54042255 7.76683978 59.21916920 S
atom 24.54048366 9.66383214 60.84923620 Mo
atom 26.18312979 10.61209217 62.47930213 S
atom 26.18312979 10.61209217 59.21916920 S
atom 26.18319089 12.50908453 60.84923620 Mo
atom 27.82583702 13.45734456 62.47930213 S
atom 27.82583702 13.45734456 59.21916920 S
atom 27.82589813 15.35433692 60.84923620 Mo
atom 29.46854425 16.30259695 62.47930213 S
atom 29.46854425 16.30259695 59.21916920 S
atom 29.46860536 18.19958931 60.84923620 Mo
atom 31.11125149 19.14784934 62.47930213 S
atom 31.11125149 19.14784934 59.21916920 S
atom 31.11131260 21.04484170 60.84923620 Mo
atom 32.75395872 21.99310173 62.47930213 S
atom 32.75395872 21.99310173 59.21916920 S
atom 19.61236196 1.12807497 60.84923620 Mo
atom 21.25500808 2.07633500 62.47930213 S
atom 21.25500808 2.07633500 59.21916920 S
atom 21.25506919 3.97332736 60.84923620 Mo
atom 22.89771532 4.92158739 62.47930213 S
atom 22.89771532 4.92158739 59.21916920 S
atom 26.18319089 6.81857975 60.84923620 Mo
atom 27.82583702 7.76683978 62.47930213 S
atom 27.82583702 7.76683978 59.21916920 S
atom 27.82589813 9.66383214 60.84923620 Mo
atom 29.46854425 10.61209217 62.47930213 S
atom 29.46854425 10.61209217 59.21916920 S
atom 29.46860536 12.50908453 60.84923620 Mo
atom 31.11125149 13.45734456 62.47930213 S
atom 31.11125149 13.45734456 59.21916920 S
atom 31.11131260 15.35433692 60.84923620 Mo
atom 32.75395872 16.30259695 62.47930213 S
atom 32.75395872 16.30259695 59.21916920 S
atom 32.75401983 18.19958931 60.84923620 Mo
atom 34.39666595 19.14784934 62.47930213 S
atom 34.39666595 19.14784934 59.21916920 S
atom 34.39672706 21.04484170 60.84923620 Mo
atom 36.03937319 21.99310173 62.47930213 S
atom 36.03937319 21.99310173 59.21916920 S
atom 22.89777643 1.12807497 60.84923620 Mo
atom 24.54042255 2.07633500 62.47930213 S
atom 24.54042255 2.07633500 59.21916920 S
atom 24.54048366 3.97332736 60.84923620 Mo
atom 26.18312979 4.92158739 62.47930213 S
atom 26.18312979 4.92158739 59.21916920 S
atom 29.46860536 6.81857975 60.84923620 Mo
atom 4.82793575 7.76683978 62.47930213 S
atom 4.82793575 7.76683978 59.21916920 S
atom 31.11131260 9.66383214 60.84923620 Mo
atom 6.47064298 10.61209217 62.47930213 S
atom 6.47064298 10.61209217 59.21916920 S
atom 32.75401983 12.50908453 60.84923620 Mo
atom 8.11335021 13.45734456 62.47930213 S
atom 8.11335021 13.45734456 59.21916920 S
atom 34.39672706 15.35433692 60.84923620 Mo
atom 9.75605745 16.30259695 62.47930213 S
atom 9.75605745 16.30259695 59.21916920 S
atom 36.03943430 18.19958931 60.84923620 Mo
atom 11.39876468 19.14784934 62.47930213 S
atom 11.39876468 19.14784934 59.21916920 S
atom 37.68214153 21.04484170 60.84923620 Mo
atom 13.04147192 21.99310173 62.47930213 S
atom 13.04147192 21.99310173 59.21916920 S
atom 26.18319089 1.12807497 60.84923620 Mo
atom 1.54252128 2.07633500 62.47930213 S
atom 1.54252128 2.07633500 59.21916920 S
atom 27.82589813 3.97332736 60.84923620 Mo
atom 3.18522851 4.92158739 62.47930213 S
atom 3.18522851 4.92158739 59.21916920 S
