#
lattice_vector  26.28331574 0.00000000 0.00000000
lattice_vector  13.14165787 22.76201912 0.00000000
lattice_vector  0.00000000 0.00000000 107.15341248
#
atom_frac 0.00000000 0.00000000 0.46662070 Au
atom_frac 0.03703704 0.03703704 0.48887357 Au
atom_frac 0.96296296 0.07407407 0.51112643 Au
atom_frac 0.00000000 0.00000000 0.53337930 Au
atom_frac 0.00000000 0.00000000 0.46662070 Au
atom_frac 0.03703704 0.03703704 0.48887357 Au
atom_frac 0.96296296 0.07407407 0.51112643 Au
atom_frac 0.00000000 0.00000000 0.53337930 Au
atom_frac 0.00000000 0.00000000 0.46662070 Au
atom_frac 0.03703704 0.03703704 0.48887357 Au
atom_frac 0.96296296 0.07407407 0.51112643 Au
atom_frac 0.00000000 0.00000000 0.53337930 Au
atom_frac 0.00000000 0.00000000 0.46662070 Au
atom_frac 0.03703704 0.03703704 0.48887357 Au
atom_frac 0.96296296 0.07407407 0.51112643 Au
atom_frac 0.00000000 0.00000000 0.53337930 Au
atom_frac -0.00000000 0.11111111 0.46662070 Au
atom_frac 0.03703704 0.14814815 0.48887357 Au
atom_frac 0.96296296 0.18518519 0.51112643 Au
atom_frac -0.00000000 0.11111111 0.53337930 Au
atom_frac -0.00000000 0.11111111 0.46662070 Au
atom_frac 0.03703704 0.14814815 0.48887357 Au
atom_frac 0.96296296 0.18518519 0.51112643 Au
atom_frac -0.00000000 0.11111111 0.53337930 Au
atom_frac -0.00000000 0.11111111 0.46662070 Au
atom_frac 0.03703704 0.14814815 0.48887357 Au
atom_frac 0.96296296 0.18518519 0.51112643 Au
atom_frac -0.00000000 0.11111111 0.53337930 Au
atom_frac -0.00000000 0.11111111 0.46662070 Au
atom_frac 0.03703704 0.14814815 0.48887357 Au
atom_frac 0.96296296 0.18518519 0.51112643 Au
atom_frac -0.00000000 0.11111111 0.53337930 Au
atom_frac -0.00000000 0.22222222 0.46662070 Au
atom_frac 0.03703704 0.25925926 0.48887357 Au
atom_frac 0.96296296 0.29629630 0.51112643 Au
atom_frac -0.00000000 0.22222222 0.53337930 Au
atom_frac -0.00000000 0.22222222 0.46662070 Au
atom_frac 0.03703704 0.25925926 0.48887357 Au
atom_frac 0.96296296 0.29629630 0.51112643 Au
atom_frac -0.00000000 0.22222222 0.53337930 Au
atom_frac -0.00000000 0.22222222 0.46662070 Au
atom_frac 0.03703704 0.25925926 0.48887357 Au
atom_frac 0.96296296 0.29629630 0.51112643 Au
atom_frac -0.00000000 0.22222222 0.53337930 Au
atom_frac -0.00000000 0.22222222 0.46662070 Au
atom_frac 0.03703704 0.25925926 0.48887357 Au
atom_frac 0.96296296 0.29629630 0.51112643 Au
atom_frac -0.00000000 0.22222222 0.53337930 Au
atom_frac -0.00000000 0.33333333 0.46662070 Au
atom_frac 0.03703704 0.37037037 0.48887357 Au
atom_frac 0.96296296 0.40740741 0.51112643 Au
atom_frac -0.00000000 0.33333333 0.53337930 Au
atom_frac -0.00000000 0.33333333 0.46662070 Au
atom_frac 0.03703704 0.37037037 0.48887357 Au
atom_frac 0.96296296 0.40740741 0.51112643 Au
atom_frac -0.00000000 0.33333333 0.53337930 Au
atom_frac -0.00000000 0.33333333 0.46662070 Au
atom_frac 0.03703704 0.37037037 0.48887357 Au
atom_frac 0.96296296 0.40740741 0.51112643 Au
atom_frac -0.00000000 0.33333333 0.53337930 Au
atom_frac -0.00000000 0.33333333 0.46662070 Au
atom_frac 0.03703704 0.37037037 0.48887357 Au
atom_frac 0.96296296 0.40740741 0.51112643 Au
atom_frac -0.00000000 0.33333333 0.53337930 Au
atom_frac -0.00000000 0.44444444 0.46662070 Au
atom_frac 0.03703704 0.48148148 0.48887357 Au
atom_frac 0.96296296 0.51851852 0.51112643 Au
atom_frac -0.00000000 0.44444444 0.53337930 Au
atom_frac -0.00000000 0.44444444 0.46662070 Au
atom_frac 0.03703704 0.48148148 0.48887357 Au
atom_frac 0.96296296 0.51851852 0.51112643 Au
atom_frac -0.00000000 0.44444444 0.53337930 Au
atom_frac -0.00000000 0.44444444 0.46662070 Au
atom_frac 0.03703704 0.48148148 0.48887357 Au
atom_frac 0.96296296 0.51851852 0.51112643 Au
atom_frac -0.00000000 0.44444444 0.53337930 Au
atom_frac -0.00000000 0.44444444 0.46662070 Au
atom_frac 0.03703704 0.48148148 0.48887357 Au
atom_frac 0.96296296 0.51851852 0.51112643 Au
atom_frac -0.00000000 0.44444444 0.53337930 Au
atom_frac 0.00000000 0.55555556 0.46662070 Au
atom_frac 0.03703704 0.59259259 0.48887357 Au
atom_frac 0.96296296 0.62962963 0.51112643 Au
atom_frac 0.00000000 0.55555556 0.53337930 Au
atom_frac 0.00000000 0.55555556 0.46662070 Au
atom_frac 0.03703704 0.59259259 0.48887357 Au
atom_frac 0.96296296 0.62962963 0.51112643 Au
atom_frac 0.00000000 0.55555556 0.53337930 Au
atom_frac 0.00000000 0.55555556 0.46662070 Au
atom_frac 0.03703704 0.59259259 0.48887357 Au
atom_frac 0.96296296 0.62962963 0.51112643 Au
atom_frac 0.00000000 0.55555556 0.53337930 Au
atom_frac 0.00000000 0.55555556 0.46662070 Au
atom_frac 0.03703704 0.59259259 0.48887357 Au
atom_frac 0.96296296 0.62962963 0.51112643 Au
atom_frac 0.00000000 0.55555556 0.53337930 Au
atom_frac -0.00000000 0.66666667 0.46662070 Au
atom_frac 0.03703704 0.70370370 0.48887357 Au
atom_frac 0.96296296 0.74074074 0.51112643 Au
atom_frac -0.00000000 0.66666667 0.53337930 Au
atom_frac -0.00000000 0.66666667 0.46662070 Au
atom_frac 0.03703704 0.70370370 0.48887357 Au
atom_frac 0.96296296 0.74074074 0.51112643 Au
atom_frac -0.00000000 0.66666667 0.53337930 Au
atom_frac -0.00000000 0.66666667 0.46662070 Au
atom_frac 0.03703704 0.70370370 0.48887357 Au
atom_frac 0.96296296 0.74074074 0.51112643 Au
atom_frac -0.00000000 0.66666667 0.53337930 Au
atom_frac -0.00000000 0.66666667 0.46662070 Au
atom_frac 0.03703704 0.70370370 0.48887357 Au
atom_frac 0.96296296 0.74074074 0.51112643 Au
atom_frac -0.00000000 0.66666667 0.53337930 Au
atom_frac 0.00000000 0.77777778 0.46662070 Au
atom_frac 0.03703704 0.81481481 0.48887357 Au
atom_frac 0.96296296 0.85185185 0.51112643 Au
atom_frac 0.00000000 0.77777778 0.53337930 Au
atom_frac 0.00000000 0.77777778 0.46662070 Au
atom_frac 0.03703704 0.81481481 0.48887357 Au
atom_frac 0.96296296 0.85185185 0.51112643 Au
atom_frac 0.00000000 0.77777778 0.53337930 Au
atom_frac 0.00000000 0.77777778 0.46662070 Au
atom_frac 0.03703704 0.81481481 0.48887357 Au
atom_frac 0.96296296 0.85185185 0.51112643 Au
atom_frac 0.00000000 0.77777778 0.53337930 Au
atom_frac 0.00000000 0.77777778 0.46662070 Au
atom_frac 0.03703704 0.81481481 0.48887357 Au
atom_frac 0.96296296 0.85185185 0.51112643 Au
atom_frac 0.00000000 0.77777778 0.53337930 Au
atom_frac -0.00000000 0.88888889 0.46662070 Au
atom_frac 0.03703704 0.92592593 0.48887357 Au
atom_frac 0.96296296 0.96296296 0.51112643 Au
atom_frac -0.00000000 0.88888889 0.53337930 Au
atom_frac -0.00000000 0.88888889 0.46662070 Au
atom_frac 0.03703704 0.92592593 0.48887357 Au
atom_frac 0.96296296 0.96296296 0.51112643 Au
atom_frac -0.00000000 0.88888889 0.53337930 Au
atom_frac -0.00000000 0.88888889 0.46662070 Au
atom_frac 0.03703704 0.92592593 0.48887357 Au
atom_frac 0.96296296 0.96296296 0.51112643 Au
atom_frac -0.00000000 0.88888889 0.53337930 Au
atom_frac -0.00000000 0.88888889 0.46662070 Au
atom_frac 0.03703704 0.92592593 0.48887357 Au
atom_frac 0.96296296 0.96296296 0.51112643 Au
atom_frac -0.00000000 0.88888889 0.53337930 Au
atom_frac 0.11111111 0.00000000 0.46662070 Au
atom_frac 0.14814815 0.03703704 0.48887357 Au
atom_frac 0.07407407 0.07407407 0.51112643 Au
atom_frac 0.11111111 0.00000000 0.53337930 Au
atom_frac 0.11111111 0.00000000 0.46662070 Au
atom_frac 0.14814815 0.03703704 0.48887357 Au
atom_frac 0.07407407 0.07407407 0.51112643 Au
atom_frac 0.11111111 0.00000000 0.53337930 Au
atom_frac 0.11111111 0.00000000 0.46662070 Au
atom_frac 0.14814815 0.03703704 0.48887357 Au
atom_frac 0.07407407 0.07407407 0.51112643 Au
atom_frac 0.11111111 0.00000000 0.53337930 Au
atom_frac 0.11111111 0.00000000 0.46662070 Au
atom_frac 0.14814815 0.03703704 0.48887357 Au
atom_frac 0.07407407 0.07407407 0.51112643 Au
atom_frac 0.11111111 0.00000000 0.53337930 Au
atom_frac 0.11111111 0.11111111 0.46662070 Au
atom_frac 0.14814815 0.14814815 0.48887357 Au
atom_frac 0.07407407 0.18518519 0.51112643 Au
atom_frac 0.11111111 0.11111111 0.53337930 Au
atom_frac 0.11111111 0.11111111 0.46662070 Au
atom_frac 0.14814815 0.14814815 0.48887357 Au
atom_frac 0.07407407 0.18518519 0.51112643 Au
atom_frac 0.11111111 0.11111111 0.53337930 Au
atom_frac 0.11111111 0.11111111 0.46662070 Au
atom_frac 0.14814815 0.14814815 0.48887357 Au
atom_frac 0.07407407 0.18518519 0.51112643 Au
atom_frac 0.11111111 0.11111111 0.53337930 Au
atom_frac 0.11111111 0.11111111 0.46662070 Au
atom_frac 0.14814815 0.14814815 0.48887357 Au
atom_frac 0.07407407 0.18518519 0.51112643 Au
atom_frac 0.11111111 0.11111111 0.53337930 Au
atom_frac 0.11111111 0.22222222 0.46662070 Au
atom_frac 0.14814815 0.25925926 0.48887357 Au
atom_frac 0.07407407 0.29629630 0.51112643 Au
atom_frac 0.11111111 0.22222222 0.53337930 Au
atom_frac 0.11111111 0.22222222 0.46662070 Au
atom_frac 0.14814815 0.25925926 0.48887357 Au
atom_frac 0.07407407 0.29629630 0.51112643 Au
atom_frac 0.11111111 0.22222222 0.53337930 Au
atom_frac 0.11111111 0.22222222 0.46662070 Au
atom_frac 0.14814815 0.25925926 0.48887357 Au
atom_frac 0.07407407 0.29629630 0.51112643 Au
atom_frac 0.11111111 0.22222222 0.53337930 Au
atom_frac 0.11111111 0.22222222 0.46662070 Au
atom_frac 0.14814815 0.25925926 0.48887357 Au
atom_frac 0.07407407 0.29629630 0.51112643 Au
atom_frac 0.11111111 0.22222222 0.53337930 Au
atom_frac 0.11111111 0.33333333 0.46662070 Au
atom_frac 0.14814815 0.37037037 0.48887357 Au
atom_frac 0.07407407 0.40740741 0.51112643 Au
atom_frac 0.11111111 0.33333333 0.53337930 Au
atom_frac 0.11111111 0.33333333 0.46662070 Au
atom_frac 0.14814815 0.37037037 0.48887357 Au
atom_frac 0.07407407 0.40740741 0.51112643 Au
atom_frac 0.11111111 0.33333333 0.53337930 Au
atom_frac 0.11111111 0.33333333 0.46662070 Au
atom_frac 0.14814815 0.37037037 0.48887357 Au
atom_frac 0.07407407 0.40740741 0.51112643 Au
atom_frac 0.11111111 0.33333333 0.53337930 Au
atom_frac 0.11111111 0.33333333 0.46662070 Au
atom_frac 0.14814815 0.37037037 0.48887357 Au
atom_frac 0.07407407 0.40740741 0.51112643 Au
atom_frac 0.11111111 0.33333333 0.53337930 Au
atom_frac 0.11111111 0.44444444 0.46662070 Au
atom_frac 0.14814815 0.48148148 0.48887357 Au
atom_frac 0.07407407 0.51851852 0.51112643 Au
atom_frac 0.11111111 0.44444444 0.53337930 Au
atom_frac 0.11111111 0.44444444 0.46662070 Au
atom_frac 0.14814815 0.48148148 0.48887357 Au
atom_frac 0.07407407 0.51851852 0.51112643 Au
atom_frac 0.11111111 0.44444444 0.53337930 Au
atom_frac 0.11111111 0.44444444 0.46662070 Au
atom_frac 0.14814815 0.48148148 0.48887357 Au
atom_frac 0.07407407 0.51851852 0.51112643 Au
atom_frac 0.11111111 0.44444444 0.53337930 Au
atom_frac 0.11111111 0.44444444 0.46662070 Au
atom_frac 0.14814815 0.48148148 0.48887357 Au
atom_frac 0.07407407 0.51851852 0.51112643 Au
atom_frac 0.11111111 0.44444444 0.53337930 Au
atom_frac 0.11111111 0.55555556 0.46662070 Au
atom_frac 0.14814815 0.59259259 0.48887357 Au
atom_frac 0.07407407 0.62962963 0.51112643 Au
atom_frac 0.11111111 0.55555556 0.53337930 Au
atom_frac 0.11111111 0.55555556 0.46662070 Au
atom_frac 0.14814815 0.59259259 0.48887357 Au
atom_frac 0.07407407 0.62962963 0.51112643 Au
atom_frac 0.11111111 0.55555556 0.53337930 Au
atom_frac 0.11111111 0.55555556 0.46662070 Au
atom_frac 0.14814815 0.59259259 0.48887357 Au
atom_frac 0.07407407 0.62962963 0.51112643 Au
atom_frac 0.11111111 0.55555556 0.53337930 Au
atom_frac 0.11111111 0.55555556 0.46662070 Au
atom_frac 0.14814815 0.59259259 0.48887357 Au
atom_frac 0.07407407 0.62962963 0.51112643 Au
atom_frac 0.11111111 0.55555556 0.53337930 Au
atom_frac 0.11111111 0.66666667 0.46662070 Au
atom_frac 0.14814815 0.70370370 0.48887357 Au
atom_frac 0.07407407 0.74074074 0.51112643 Au
atom_frac 0.11111111 0.66666667 0.53337930 Au
atom_frac 0.11111111 0.66666667 0.46662070 Au
atom_frac 0.14814815 0.70370370 0.48887357 Au
atom_frac 0.07407407 0.74074074 0.51112643 Au
atom_frac 0.11111111 0.66666667 0.53337930 Au
atom_frac 0.11111111 0.66666667 0.46662070 Au
atom_frac 0.14814815 0.70370370 0.48887357 Au
atom_frac 0.07407407 0.74074074 0.51112643 Au
atom_frac 0.11111111 0.66666667 0.53337930 Au
atom_frac 0.11111111 0.66666667 0.46662070 Au
atom_frac 0.14814815 0.70370370 0.48887357 Au
atom_frac 0.07407407 0.74074074 0.51112643 Au
atom_frac 0.11111111 0.66666667 0.53337930 Au
atom_frac 0.11111111 0.77777778 0.46662070 Au
atom_frac 0.14814815 0.81481481 0.48887357 Au
atom_frac 0.07407407 0.85185185 0.51112643 Au
atom_frac 0.11111111 0.77777778 0.53337930 Au
atom_frac 0.11111111 0.77777778 0.46662070 Au
atom_frac 0.14814815 0.81481481 0.48887357 Au
atom_frac 0.07407407 0.85185185 0.51112643 Au
atom_frac 0.11111111 0.77777778 0.53337930 Au
atom_frac 0.11111111 0.77777778 0.46662070 Au
atom_frac 0.14814815 0.81481481 0.48887357 Au
atom_frac 0.07407407 0.85185185 0.51112643 Au
atom_frac 0.11111111 0.77777778 0.53337930 Au
atom_frac 0.11111111 0.77777778 0.46662070 Au
atom_frac 0.14814815 0.81481481 0.48887357 Au
atom_frac 0.07407407 0.85185185 0.51112643 Au
atom_frac 0.11111111 0.77777778 0.53337930 Au
atom_frac 0.11111111 0.88888889 0.46662070 Au
atom_frac 0.14814815 0.92592593 0.48887357 Au
atom_frac 0.07407407 0.96296296 0.51112643 Au
atom_frac 0.11111111 0.88888889 0.53337930 Au
atom_frac 0.11111111 0.88888889 0.46662070 Au
atom_frac 0.14814815 0.92592593 0.48887357 Au
atom_frac 0.07407407 0.96296296 0.51112643 Au
atom_frac 0.11111111 0.88888889 0.53337930 Au
atom_frac 0.11111111 0.88888889 0.46662070 Au
atom_frac 0.14814815 0.92592593 0.48887357 Au
atom_frac 0.07407407 0.96296296 0.51112643 Au
atom_frac 0.11111111 0.88888889 0.53337930 Au
atom_frac 0.11111111 0.88888889 0.46662070 Au
atom_frac 0.14814815 0.92592593 0.48887357 Au
atom_frac 0.07407407 0.96296296 0.51112643 Au
atom_frac 0.11111111 0.88888889 0.53337930 Au
atom_frac 0.22222222 0.00000000 0.46662070 Au
atom_frac 0.25925926 0.03703704 0.48887357 Au
atom_frac 0.18518519 0.07407407 0.51112643 Au
atom_frac 0.22222222 0.00000000 0.53337930 Au
atom_frac 0.22222222 0.00000000 0.46662070 Au
atom_frac 0.25925926 0.03703704 0.48887357 Au
atom_frac 0.18518519 0.07407407 0.51112643 Au
atom_frac 0.22222222 0.00000000 0.53337930 Au
atom_frac 0.22222222 0.00000000 0.46662070 Au
atom_frac 0.25925926 0.03703704 0.48887357 Au
atom_frac 0.18518519 0.07407407 0.51112643 Au
atom_frac 0.22222222 0.00000000 0.53337930 Au
atom_frac 0.22222222 0.00000000 0.46662070 Au
atom_frac 0.25925926 0.03703704 0.48887357 Au
atom_frac 0.18518519 0.07407407 0.51112643 Au
atom_frac 0.22222222 0.00000000 0.53337930 Au
atom_frac 0.22222222 0.11111111 0.46662070 Au
atom_frac 0.25925926 0.14814815 0.48887357 Au
atom_frac 0.18518519 0.18518519 0.51112643 Au
atom_frac 0.22222222 0.11111111 0.53337930 Au
atom_frac 0.22222222 0.11111111 0.46662070 Au
atom_frac 0.25925926 0.14814815 0.48887357 Au
atom_frac 0.18518519 0.18518519 0.51112643 Au
atom_frac 0.22222222 0.11111111 0.53337930 Au
atom_frac 0.22222222 0.11111111 0.46662070 Au
atom_frac 0.25925926 0.14814815 0.48887357 Au
atom_frac 0.18518519 0.18518519 0.51112643 Au
atom_frac 0.22222222 0.11111111 0.53337930 Au
atom_frac 0.22222222 0.11111111 0.46662070 Au
atom_frac 0.25925926 0.14814815 0.48887357 Au
atom_frac 0.18518519 0.18518519 0.51112643 Au
atom_frac 0.22222222 0.11111111 0.53337930 Au
atom_frac 0.22222222 0.22222222 0.46662070 Au
atom_frac 0.25925926 0.25925926 0.48887357 Au
atom_frac 0.18518519 0.29629630 0.51112643 Au
atom_frac 0.22222222 0.22222222 0.53337930 Au
atom_frac 0.22222222 0.22222222 0.46662070 Au
atom_frac 0.25925926 0.25925926 0.48887357 Au
atom_frac 0.18518519 0.29629630 0.51112643 Au
atom_frac 0.22222222 0.22222222 0.53337930 Au
atom_frac 0.22222222 0.22222222 0.46662070 Au
atom_frac 0.25925926 0.25925926 0.48887357 Au
atom_frac 0.18518519 0.29629630 0.51112643 Au
atom_frac 0.22222222 0.22222222 0.53337930 Au
atom_frac 0.22222222 0.22222222 0.46662070 Au
atom_frac 0.25925926 0.25925926 0.48887357 Au
atom_frac 0.18518519 0.29629630 0.51112643 Au
atom_frac 0.22222222 0.22222222 0.53337930 Au
atom_frac 0.22222222 0.33333333 0.46662070 Au
atom_frac 0.25925926 0.37037037 0.48887357 Au
atom_frac 0.18518519 0.40740741 0.51112643 Au
atom_frac 0.22222222 0.33333333 0.53337930 Au
atom_frac 0.22222222 0.33333333 0.46662070 Au
atom_frac 0.25925926 0.37037037 0.48887357 Au
atom_frac 0.18518519 0.40740741 0.51112643 Au
atom_frac 0.22222222 0.33333333 0.53337930 Au
atom_frac 0.22222222 0.33333333 0.46662070 Au
atom_frac 0.25925926 0.37037037 0.48887357 Au
atom_frac 0.18518519 0.40740741 0.51112643 Au
atom_frac 0.22222222 0.33333333 0.53337930 Au
atom_frac 0.22222222 0.33333333 0.46662070 Au
atom_frac 0.25925926 0.37037037 0.48887357 Au
atom_frac 0.18518519 0.40740741 0.51112643 Au
atom_frac 0.22222222 0.33333333 0.53337930 Au
atom_frac 0.22222222 0.44444444 0.46662070 Au
atom_frac 0.25925926 0.48148148 0.48887357 Au
atom_frac 0.18518519 0.51851852 0.51112643 Au
atom_frac 0.22222222 0.44444444 0.53337930 Au
atom_frac 0.22222222 0.44444444 0.46662070 Au
atom_frac 0.25925926 0.48148148 0.48887357 Au
atom_frac 0.18518519 0.51851852 0.51112643 Au
atom_frac 0.22222222 0.44444444 0.53337930 Au
atom_frac 0.22222222 0.44444444 0.46662070 Au
atom_frac 0.25925926 0.48148148 0.48887357 Au
atom_frac 0.18518519 0.51851852 0.51112643 Au
atom_frac 0.22222222 0.44444444 0.53337930 Au
atom_frac 0.22222222 0.44444444 0.46662070 Au
atom_frac 0.25925926 0.48148148 0.48887357 Au
atom_frac 0.18518519 0.51851852 0.51112643 Au
atom_frac 0.22222222 0.44444444 0.53337930 Au
atom_frac 0.22222222 0.55555556 0.46662070 Au
atom_frac 0.25925926 0.59259259 0.48887357 Au
atom_frac 0.18518519 0.62962963 0.51112643 Au
atom_frac 0.22222222 0.55555556 0.53337930 Au
atom_frac 0.22222222 0.55555556 0.46662070 Au
atom_frac 0.25925926 0.59259259 0.48887357 Au
atom_frac 0.18518519 0.62962963 0.51112643 Au
atom_frac 0.22222222 0.55555556 0.53337930 Au
atom_frac 0.22222222 0.55555556 0.46662070 Au
atom_frac 0.25925926 0.59259259 0.48887357 Au
atom_frac 0.18518519 0.62962963 0.51112643 Au
atom_frac 0.22222222 0.55555556 0.53337930 Au
atom_frac 0.22222222 0.55555556 0.46662070 Au
atom_frac 0.25925926 0.59259259 0.48887357 Au
atom_frac 0.18518519 0.62962963 0.51112643 Au
atom_frac 0.22222222 0.55555556 0.53337930 Au
atom_frac 0.22222222 0.66666667 0.46662070 Au
atom_frac 0.25925926 0.70370370 0.48887357 Au
atom_frac 0.18518519 0.74074074 0.51112643 Au
atom_frac 0.22222222 0.66666667 0.53337930 Au
atom_frac 0.22222222 0.66666667 0.46662070 Au
atom_frac 0.25925926 0.70370370 0.48887357 Au
atom_frac 0.18518519 0.74074074 0.51112643 Au
atom_frac 0.22222222 0.66666667 0.53337930 Au
atom_frac 0.22222222 0.66666667 0.46662070 Au
atom_frac 0.25925926 0.70370370 0.48887357 Au
atom_frac 0.18518519 0.74074074 0.51112643 Au
atom_frac 0.22222222 0.66666667 0.53337930 Au
atom_frac 0.22222222 0.66666667 0.46662070 Au
atom_frac 0.25925926 0.70370370 0.48887357 Au
atom_frac 0.18518519 0.74074074 0.51112643 Au
atom_frac 0.22222222 0.66666667 0.53337930 Au
atom_frac 0.22222222 0.77777778 0.46662070 Au
atom_frac 0.25925926 0.81481481 0.48887357 Au
atom_frac 0.18518519 0.85185185 0.51112643 Au
atom_frac 0.22222222 0.77777778 0.53337930 Au
atom_frac 0.22222222 0.77777778 0.46662070 Au
atom_frac 0.25925926 0.81481481 0.48887357 Au
atom_frac 0.18518519 0.85185185 0.51112643 Au
atom_frac 0.22222222 0.77777778 0.53337930 Au
atom_frac 0.22222222 0.77777778 0.46662070 Au
atom_frac 0.25925926 0.81481481 0.48887357 Au
atom_frac 0.18518519 0.85185185 0.51112643 Au
atom_frac 0.22222222 0.77777778 0.53337930 Au
atom_frac 0.22222222 0.77777778 0.46662070 Au
atom_frac 0.25925926 0.81481481 0.48887357 Au
atom_frac 0.18518519 0.85185185 0.51112643 Au
atom_frac 0.22222222 0.77777778 0.53337930 Au
atom_frac 0.22222222 0.88888889 0.46662070 Au
atom_frac 0.25925926 0.92592593 0.48887357 Au
atom_frac 0.18518519 0.96296296 0.51112643 Au
atom_frac 0.22222222 0.88888889 0.53337930 Au
atom_frac 0.22222222 0.88888889 0.46662070 Au
atom_frac 0.25925926 0.92592593 0.48887357 Au
atom_frac 0.18518519 0.96296296 0.51112643 Au
atom_frac 0.22222222 0.88888889 0.53337930 Au
atom_frac 0.22222222 0.88888889 0.46662070 Au
atom_frac 0.25925926 0.92592593 0.48887357 Au
atom_frac 0.18518519 0.96296296 0.51112643 Au
atom_frac 0.22222222 0.88888889 0.53337930 Au
atom_frac 0.22222222 0.88888889 0.46662070 Au
atom_frac 0.25925926 0.92592593 0.48887357 Au
atom_frac 0.18518519 0.96296296 0.51112643 Au
atom_frac 0.22222222 0.88888889 0.53337930 Au
atom_frac 0.33333333 0.00000000 0.46662070 Au
atom_frac 0.37037037 0.03703704 0.48887357 Au
atom_frac 0.29629630 0.07407407 0.51112643 Au
atom_frac 0.33333333 0.00000000 0.53337930 Au
atom_frac 0.33333333 0.00000000 0.46662070 Au
atom_frac 0.37037037 0.03703704 0.48887357 Au
atom_frac 0.29629630 0.07407407 0.51112643 Au
atom_frac 0.33333333 0.00000000 0.53337930 Au
atom_frac 0.33333333 0.00000000 0.46662070 Au
atom_frac 0.37037037 0.03703704 0.48887357 Au
atom_frac 0.29629630 0.07407407 0.51112643 Au
atom_frac 0.33333333 0.00000000 0.53337930 Au
atom_frac 0.33333333 0.00000000 0.46662070 Au
atom_frac 0.37037037 0.03703704 0.48887357 Au
atom_frac 0.29629630 0.07407407 0.51112643 Au
atom_frac 0.33333333 0.00000000 0.53337930 Au
atom_frac 0.33333333 0.11111111 0.46662070 Au
atom_frac 0.37037037 0.14814815 0.48887357 Au
atom_frac 0.29629630 0.18518519 0.51112643 Au
atom_frac 0.33333333 0.11111111 0.53337930 Au
atom_frac 0.33333333 0.11111111 0.46662070 Au
atom_frac 0.37037037 0.14814815 0.48887357 Au
atom_frac 0.29629630 0.18518519 0.51112643 Au
atom_frac 0.33333333 0.11111111 0.53337930 Au
atom_frac 0.33333333 0.11111111 0.46662070 Au
atom_frac 0.37037037 0.14814815 0.48887357 Au
atom_frac 0.29629630 0.18518519 0.51112643 Au
atom_frac 0.33333333 0.11111111 0.53337930 Au
atom_frac 0.33333333 0.11111111 0.46662070 Au
atom_frac 0.37037037 0.14814815 0.48887357 Au
atom_frac 0.29629630 0.18518519 0.51112643 Au
atom_frac 0.33333333 0.11111111 0.53337930 Au
atom_frac 0.33333333 0.22222222 0.46662070 Au
atom_frac 0.37037037 0.25925926 0.48887357 Au
atom_frac 0.29629630 0.29629630 0.51112643 Au
atom_frac 0.33333333 0.22222222 0.53337930 Au
atom_frac 0.33333333 0.22222222 0.46662070 Au
atom_frac 0.37037037 0.25925926 0.48887357 Au
atom_frac 0.29629630 0.29629630 0.51112643 Au
atom_frac 0.33333333 0.22222222 0.53337930 Au
atom_frac 0.33333333 0.22222222 0.46662070 Au
atom_frac 0.37037037 0.25925926 0.48887357 Au
atom_frac 0.29629630 0.29629630 0.51112643 Au
atom_frac 0.33333333 0.22222222 0.53337930 Au
atom_frac 0.33333333 0.22222222 0.46662070 Au
atom_frac 0.37037037 0.25925926 0.48887357 Au
atom_frac 0.29629630 0.29629630 0.51112643 Au
atom_frac 0.33333333 0.22222222 0.53337930 Au
atom_frac 0.33333333 0.33333333 0.46662070 Au
atom_frac 0.37037037 0.37037037 0.48887357 Au
atom_frac 0.29629630 0.40740741 0.51112643 Au
atom_frac 0.33333333 0.33333333 0.53337930 Au
atom_frac 0.33333333 0.33333333 0.46662070 Au
atom_frac 0.37037037 0.37037037 0.48887357 Au
atom_frac 0.29629630 0.40740741 0.51112643 Au
atom_frac 0.33333333 0.33333333 0.53337930 Au
atom_frac 0.33333333 0.33333333 0.46662070 Au
atom_frac 0.37037037 0.37037037 0.48887357 Au
atom_frac 0.29629630 0.40740741 0.51112643 Au
atom_frac 0.33333333 0.33333333 0.53337930 Au
atom_frac 0.33333333 0.33333333 0.46662070 Au
atom_frac 0.37037037 0.37037037 0.48887357 Au
atom_frac 0.29629630 0.40740741 0.51112643 Au
atom_frac 0.33333333 0.33333333 0.53337930 Au
atom_frac 0.33333333 0.44444444 0.46662070 Au
atom_frac 0.37037037 0.48148148 0.48887357 Au
atom_frac 0.29629630 0.51851852 0.51112643 Au
atom_frac 0.33333333 0.44444444 0.53337930 Au
atom_frac 0.33333333 0.44444444 0.46662070 Au
atom_frac 0.37037037 0.48148148 0.48887357 Au
atom_frac 0.29629630 0.51851852 0.51112643 Au
atom_frac 0.33333333 0.44444444 0.53337930 Au
atom_frac 0.33333333 0.44444444 0.46662070 Au
atom_frac 0.37037037 0.48148148 0.48887357 Au
atom_frac 0.29629630 0.51851852 0.51112643 Au
atom_frac 0.33333333 0.44444444 0.53337930 Au
atom_frac 0.33333333 0.44444444 0.46662070 Au
atom_frac 0.37037037 0.48148148 0.48887357 Au
atom_frac 0.29629630 0.51851852 0.51112643 Au
atom_frac 0.33333333 0.44444444 0.53337930 Au
atom_frac 0.33333333 0.55555556 0.46662070 Au
atom_frac 0.37037037 0.59259259 0.48887357 Au
atom_frac 0.29629630 0.62962963 0.51112643 Au
atom_frac 0.33333333 0.55555556 0.53337930 Au
atom_frac 0.33333333 0.55555556 0.46662070 Au
atom_frac 0.37037037 0.59259259 0.48887357 Au
atom_frac 0.29629630 0.62962963 0.51112643 Au
atom_frac 0.33333333 0.55555556 0.53337930 Au
atom_frac 0.33333333 0.55555556 0.46662070 Au
atom_frac 0.37037037 0.59259259 0.48887357 Au
atom_frac 0.29629630 0.62962963 0.51112643 Au
atom_frac 0.33333333 0.55555556 0.53337930 Au
atom_frac 0.33333333 0.55555556 0.46662070 Au
atom_frac 0.37037037 0.59259259 0.48887357 Au
atom_frac 0.29629630 0.62962963 0.51112643 Au
atom_frac 0.33333333 0.55555556 0.53337930 Au
atom_frac 0.33333333 0.66666667 0.46662070 Au
atom_frac 0.37037037 0.70370370 0.48887357 Au
atom_frac 0.29629630 0.74074074 0.51112643 Au
atom_frac 0.33333333 0.66666667 0.53337930 Au
atom_frac 0.33333333 0.66666667 0.46662070 Au
atom_frac 0.37037037 0.70370370 0.48887357 Au
atom_frac 0.29629630 0.74074074 0.51112643 Au
atom_frac 0.33333333 0.66666667 0.53337930 Au
atom_frac 0.33333333 0.66666667 0.46662070 Au
atom_frac 0.37037037 0.70370370 0.48887357 Au
atom_frac 0.29629630 0.74074074 0.51112643 Au
atom_frac 0.33333333 0.66666667 0.53337930 Au
atom_frac 0.33333333 0.66666667 0.46662070 Au
atom_frac 0.37037037 0.70370370 0.48887357 Au
atom_frac 0.29629630 0.74074074 0.51112643 Au
atom_frac 0.33333333 0.66666667 0.53337930 Au
atom_frac 0.33333333 0.77777778 0.46662070 Au
atom_frac 0.37037037 0.81481481 0.48887357 Au
atom_frac 0.29629630 0.85185185 0.51112643 Au
atom_frac 0.33333333 0.77777778 0.53337930 Au
atom_frac 0.33333333 0.77777778 0.46662070 Au
atom_frac 0.37037037 0.81481481 0.48887357 Au
atom_frac 0.29629630 0.85185185 0.51112643 Au
atom_frac 0.33333333 0.77777778 0.53337930 Au
atom_frac 0.33333333 0.77777778 0.46662070 Au
atom_frac 0.37037037 0.81481481 0.48887357 Au
atom_frac 0.29629630 0.85185185 0.51112643 Au
atom_frac 0.33333333 0.77777778 0.53337930 Au
atom_frac 0.33333333 0.77777778 0.46662070 Au
atom_frac 0.37037037 0.81481481 0.48887357 Au
atom_frac 0.29629630 0.85185185 0.51112643 Au
atom_frac 0.33333333 0.77777778 0.53337930 Au
atom_frac 0.33333333 0.88888889 0.46662070 Au
atom_frac 0.37037037 0.92592593 0.48887357 Au
atom_frac 0.29629630 0.96296296 0.51112643 Au
atom_frac 0.33333333 0.88888889 0.53337930 Au
atom_frac 0.33333333 0.88888889 0.46662070 Au
atom_frac 0.37037037 0.92592593 0.48887357 Au
atom_frac 0.29629630 0.96296296 0.51112643 Au
atom_frac 0.33333333 0.88888889 0.53337930 Au
atom_frac 0.33333333 0.88888889 0.46662070 Au
atom_frac 0.37037037 0.92592593 0.48887357 Au
atom_frac 0.29629630 0.96296296 0.51112643 Au
atom_frac 0.33333333 0.88888889 0.53337930 Au
atom_frac 0.33333333 0.88888889 0.46662070 Au
atom_frac 0.37037037 0.92592593 0.48887357 Au
atom_frac 0.29629630 0.96296296 0.51112643 Au
atom_frac 0.33333333 0.88888889 0.53337930 Au
atom_frac 0.44444444 0.00000000 0.46662070 Au
atom_frac 0.48148148 0.03703704 0.48887357 Au
atom_frac 0.40740741 0.07407407 0.51112643 Au
atom_frac 0.44444444 0.00000000 0.53337930 Au
atom_frac 0.44444444 0.00000000 0.46662070 Au
atom_frac 0.48148148 0.03703704 0.48887357 Au
atom_frac 0.40740741 0.07407407 0.51112643 Au
atom_frac 0.44444444 0.00000000 0.53337930 Au
atom_frac 0.44444444 0.00000000 0.46662070 Au
atom_frac 0.48148148 0.03703704 0.48887357 Au
atom_frac 0.40740741 0.07407407 0.51112643 Au
atom_frac 0.44444444 0.00000000 0.53337930 Au
atom_frac 0.44444444 0.00000000 0.46662070 Au
atom_frac 0.48148148 0.03703704 0.48887357 Au
atom_frac 0.40740741 0.07407407 0.51112643 Au
atom_frac 0.44444444 0.00000000 0.53337930 Au
atom_frac 0.44444444 0.11111111 0.46662070 Au
atom_frac 0.48148148 0.14814815 0.48887357 Au
atom_frac 0.40740741 0.18518519 0.51112643 Au
atom_frac 0.44444444 0.11111111 0.53337930 Au
atom_frac 0.44444444 0.11111111 0.46662070 Au
atom_frac 0.48148148 0.14814815 0.48887357 Au
atom_frac 0.40740741 0.18518519 0.51112643 Au
atom_frac 0.44444444 0.11111111 0.53337930 Au
atom_frac 0.44444444 0.11111111 0.46662070 Au
atom_frac 0.48148148 0.14814815 0.48887357 Au
atom_frac 0.40740741 0.18518519 0.51112643 Au
atom_frac 0.44444444 0.11111111 0.53337930 Au
atom_frac 0.44444444 0.11111111 0.46662070 Au
atom_frac 0.48148148 0.14814815 0.48887357 Au
atom_frac 0.40740741 0.18518519 0.51112643 Au
atom_frac 0.44444444 0.11111111 0.53337930 Au
atom_frac 0.44444444 0.22222222 0.46662070 Au
atom_frac 0.48148148 0.25925926 0.48887357 Au
atom_frac 0.40740741 0.29629630 0.51112643 Au
atom_frac 0.44444444 0.22222222 0.53337930 Au
atom_frac 0.44444444 0.22222222 0.46662070 Au
atom_frac 0.48148148 0.25925926 0.48887357 Au
atom_frac 0.40740741 0.29629630 0.51112643 Au
atom_frac 0.44444444 0.22222222 0.53337930 Au
atom_frac 0.44444444 0.22222222 0.46662070 Au
atom_frac 0.48148148 0.25925926 0.48887357 Au
atom_frac 0.40740741 0.29629630 0.51112643 Au
atom_frac 0.44444444 0.22222222 0.53337930 Au
atom_frac 0.44444444 0.22222222 0.46662070 Au
atom_frac 0.48148148 0.25925926 0.48887357 Au
atom_frac 0.40740741 0.29629630 0.51112643 Au
atom_frac 0.44444444 0.22222222 0.53337930 Au
atom_frac 0.44444444 0.33333333 0.46662070 Au
atom_frac 0.48148148 0.37037037 0.48887357 Au
atom_frac 0.40740741 0.40740741 0.51112643 Au
atom_frac 0.44444444 0.33333333 0.53337930 Au
atom_frac 0.44444444 0.33333333 0.46662070 Au
atom_frac 0.48148148 0.37037037 0.48887357 Au
atom_frac 0.40740741 0.40740741 0.51112643 Au
atom_frac 0.44444444 0.33333333 0.53337930 Au
atom_frac 0.44444444 0.33333333 0.46662070 Au
atom_frac 0.48148148 0.37037037 0.48887357 Au
atom_frac 0.40740741 0.40740741 0.51112643 Au
atom_frac 0.44444444 0.33333333 0.53337930 Au
atom_frac 0.44444444 0.33333333 0.46662070 Au
atom_frac 0.48148148 0.37037037 0.48887357 Au
atom_frac 0.40740741 0.40740741 0.51112643 Au
atom_frac 0.44444444 0.33333333 0.53337930 Au
atom_frac 0.44444444 0.44444444 0.46662070 Au
atom_frac 0.48148148 0.48148148 0.48887357 Au
atom_frac 0.40740741 0.51851852 0.51112643 Au
atom_frac 0.44444444 0.44444444 0.53337930 Au
atom_frac 0.44444444 0.44444444 0.46662070 Au
atom_frac 0.48148148 0.48148148 0.48887357 Au
atom_frac 0.40740741 0.51851852 0.51112643 Au