# 
# This is the geometry file that corresponds to the current relaxation step.
# If you do not want this file to be written, set the "write_restart_geometry" flag to .false.
#  aims_uuid : 32F5B059-C28A-4034-A365-C2B954478862                                
# 
  set_vacuum_level        52.830000
lattice_vector     16.44037970     -0.00114591      0.00002432
lattice_vector     -8.22097504     14.23702869      0.00002609
lattice_vector      0.00000002      0.00000005    100.15657054
atom      -0.00017632      0.94912477      2.66057029 W
atom       1.64408958      1.89808100      4.34877805 Se
atom       1.64384203      1.89807031      0.97213720 Se
atom      -1.64421716      3.79640051      2.66045814 W
atom      -0.00012524      4.74536810      4.34880459 Se
atom      -0.00011271      4.74529059      0.97205100 Se
atom      -3.28841482      6.64385335      2.66042378 W
atom      -1.64432263      7.59274293      4.34873015 Se
atom      -1.64437939      7.59269824      0.97200544 Se
atom      -4.93265343      9.49125000      2.66050919 W
atom      -3.28859932     10.44027026      4.34874875 Se
atom      -3.28872219     10.44022160      0.97206968 Se
atom      -6.57683634     12.33868219      2.66061469 W
atom      -4.93277102     13.28774972      4.34881474 Se
atom      -4.93298669     13.28759144      0.97200014 Se
atom       3.28798727      0.94885181      2.66028798 W
atom       4.93205329      1.89785135      4.34858970 Se
atom       4.93202798      1.89778916      0.97182672 Se
atom       1.64397647      3.79633314      2.66044966 W
atom       3.28813406      4.74530723      4.34871170 Se
atom       3.28794578      4.74523631      0.97188692 Se
atom      -0.00028680      6.64357174      2.66036737 W
atom       1.64374086      7.59259926      4.34871801 Se
atom       1.64367722      7.59255670      0.97190669 Se
atom      -1.64461760      9.49102858      2.66036567 W
atom      -0.00065853     10.44001756      4.34876136 Se
atom      -0.00064613     10.44003341      0.97198561 Se
atom      -3.28885430     12.33852529      2.66036993 W
atom      -1.64485117     13.28748895      4.34873135 Se
atom      -1.64481232     13.28741291      0.97192092 Se
atom       6.57604478      0.94869122      2.66026451 W
atom       8.22003204      1.89761605      4.34874171 Se
atom       8.22002526      1.89771811      0.97185827 Se
atom       4.93202246      3.79608109      2.66020763 W
atom       6.57595824      4.74503596      4.34870746 Se
atom       6.57609565      4.74513929      0.97188149 Se
atom       3.28778883      6.64346787      2.66029632 W
atom       4.93175567      7.59243419      4.34875930 Se
atom       4.93182583      7.59252576      0.97199312 Se
atom       1.64338047      9.49084288      2.66035794 W
atom       3.28737498     10.43991079      4.34872000 Se
atom       3.28745766     10.43987733      0.97208766 Se
atom      -0.00081543     12.33829037      2.66034900 W
atom       1.64311182     13.28740781      4.34876354 Se
atom       1.64316830     13.28731420      0.97195860 Se
atom       9.86401122      0.94851857      2.66031438 W
atom      11.50803601      1.89751927      4.34873133 Se
atom      11.50807895      1.89744507      0.97193070 Se
atom       8.22000207      3.79587990      2.66037022 W
atom       9.86400080      4.74478796      4.34884690 Se
atom       9.86399583      4.74493448      0.97202646 Se
atom       6.57586077      6.64331264      2.66038177 W
atom       8.21978296      7.59213619      4.34898694 Se
atom       8.21990552      7.59233566      0.97211720 Se
atom       4.93153639      9.49072881      2.66047182 W
atom       6.57547390     10.43962704      4.34901118 Se
atom       6.57564430     10.43968259      0.97220565 Se
atom       3.28717882     12.33818784      2.66041503 W
atom       4.93116137     13.28710874      4.34887461 Se
atom       4.93137479     13.28702101      0.97212997 Se
atom      13.15210015      0.94826535      2.66043277 W
atom      14.79609943      1.89709599      4.34894938 Se
atom      14.79625461      1.89706133      0.97208051 Se
atom      11.50801897      3.79566042      2.66036714 W
atom      13.15209907      4.74446918      4.34880422 Se
atom      13.15218939      4.74449336      0.97202080 Se
atom       9.86387056      6.64308541      2.66051790 W
atom      11.50799409      7.59186560      4.34892027 Se
atom      11.50792355      7.59194551      0.97209282 Se
atom       8.21960146      9.49044987      2.66064845 W
atom       9.86373742     10.43925468      4.34901918 Se
atom       9.86364872     10.43930678      0.97223415 Se
atom       6.57534174     12.33786662      2.66063716 W
atom       8.21945852     13.28673690      4.34903015 Se
atom       8.21945650     13.28675077      0.97233958 Se
# 
# What follows is the current estimated Hessian matrix constructed by the BFGS algorithm.
# This is NOT the true Hessian matrix of the system.
# If you do not want this information here, switch it off using the "hessian_to_restart_geometry" keyword.
# 
trust_radius             0.0001867301
hessian_file
