# 
# This is the geometry file that corresponds to the current relaxation step.
# If you do not want this file to be written, set the "write_restart_geometry" flag to .false.
#  aims_uuid : B3466AA2-61E7-4F2B-AD4B-EE6E77B765F7                                
# 
  set_vacuum_level        52.549013
lattice_vector     15.90000000      0.00000000      0.00000000
lattice_vector     -7.95000000     13.76980392      0.00000000
lattice_vector      0.00000000      0.00000000    100.00000000
atom_frac       0.03504787      0.06858369      0.02618106 W
atom_frac       0.17408472      0.14099440      0.04101034 S
atom_frac       0.16663986      0.13486491      0.01021312 S
atom_frac       0.03740711      0.26870197      0.02632238 W
atom_frac       0.18333043      0.34166453      0.04096370 S
atom_frac       0.16769740      0.33384404      0.01007176 S
atom_frac       0.03505178      0.46646658      0.02618024 W
atom_frac       0.17408904      0.53309004      0.04100927 S
atom_frac       0.16664126      0.53177096      0.01021195 S
atom_frac       0.03313365      0.66622598      0.02610367 W
atom_frac       0.16783125      0.73242295      0.04131030 S
atom_frac       0.16614605      0.73316229      0.01053396 S
atom_frac       0.03313168      0.86690869      0.02610409 W
atom_frac       0.16782807      0.93540161      0.04131095 S
atom_frac       0.16614456      0.93298333      0.01053450 S
atom_frac       0.23445066      0.06887670      0.02567195 W
atom_frac       0.36589190      0.13815433      0.04114741 S
atom_frac       0.36868613      0.13463280      0.01028286 S
atom_frac       0.24115080      0.27170167      0.02500481 W
atom_frac       0.36889262      0.33452521      0.00912474 S
atom_frac       0.24115094      0.46944603      0.02500391 W
atom_frac       0.36889224      0.53436584      0.00912367 S
atom_frac       0.23445414      0.66557294      0.02567077 W
atom_frac       0.36589463      0.72773421      0.04114615 S
atom_frac       0.36868879      0.73405365      0.01028156 S
atom_frac       0.23358411      0.86679180      0.02600306 W
atom_frac       0.36605782      0.93302568      0.04155659 S
atom_frac       0.36765386      0.93382727      0.01070572 S
atom_frac       0.43343461      0.06745880      0.02616479 W
atom_frac       0.56547679      0.13346544      0.04183554 S
atom_frac       0.56765879      0.13352318      0.01095739 S
atom_frac       0.43025320      0.26898009      0.02531778 W
atom_frac       0.55970926      0.33321476      0.04132156 S
atom_frac       0.56540717      0.33161793      0.01044910 S
atom_frac       0.42775691      0.46388227      0.02450731 W
atom_frac       0.55174975      0.52587770      0.04090444 S
atom_frac       0.56351136      0.53175568      0.00993719 S
atom_frac       0.43025776      0.66127652      0.02531631 W
atom_frac       0.55970812      0.72649699      0.04132065 S
atom_frac       0.56541001      0.73379217      0.01044785 S
atom_frac       0.43343617      0.86597502      0.02616403 W
atom_frac       0.56547615      0.93201068      0.04183505 S
atom_frac       0.56766001      0.93413905      0.01095673 S
atom_frac       0.63349310      0.06674731      0.02652291 W
atom_frac       0.76720849      0.13360451      0.04203432 S
atom_frac       0.76744275      0.13372157      0.01117479 S
atom_frac       0.63206287      0.26652959      0.02635577 W
atom_frac       0.76578236      0.33373451      0.04188553 S
atom_frac       0.76656672      0.33258363      0.01105206 S
atom_frac       0.62834653      0.46470927      0.02588150 W
atom_frac       0.76230068      0.53182884      0.04153506 S
atom_frac       0.76507615      0.53213210      0.01080505 S
atom_frac       0.62834513      0.66364157      0.02588088 W
atom_frac       0.76229726      0.73047313      0.04153482 S
atom_frac       0.76507645      0.73294619      0.01080479 S
atom_frac       0.63206119      0.86553559      0.02635496 W
atom_frac       0.76577708      0.93204647      0.04188530 S
atom_frac       0.76656651      0.93398384      0.01105165 S
atom_frac       0.83423634      0.06716856      0.02658125 W
atom_frac       0.97021237      0.13545231      0.04184470 S
atom_frac       0.96718588      0.13468012      0.01102809 S
atom_frac       0.83423921      0.26706988      0.02658126 W
atom_frac       0.97021706      0.33476218      0.04184438 S
atom_frac       0.96718740      0.33250237      0.01102788 S
atom_frac       0.83247290      0.46627969      0.02635026 W
atom_frac       0.96779954      0.53348471      0.04162895 S
atom_frac       0.96595557      0.53205597      0.01083611 S
atom_frac       0.83130853      0.66565667      0.02620051 W
atom_frac       0.96606045      0.73302975      0.04152770 S
atom_frac       0.96527831      0.73264049      0.01075318 S
atom_frac       0.83246880      0.86619465      0.02635023 W
atom_frac       0.96779405      0.93431124      0.04162935 S
atom_frac       0.96595426      0.93389956      0.01083656 S
# 
# What follows is the current estimated Hessian matrix constructed by the BFGS algorithm.
# This is NOT the true Hessian matrix of the system.
# If you do not want this information here, switch it off using the "hessian_to_restart_geometry" keyword.
# 
