# 
# This is the geometry file that corresponds to the current relaxation step.
# If you do not want this file to be written, set the "write_restart_geometry" flag to .false.
#  aims_uuid : 488BD888-B4E0-4A23-A704-8AF6E7FC3187                                
# 
  set_vacuum_level        52.633048
lattice_vector     16.23865900      0.00000000      0.00000000
lattice_vector     -8.11989635     14.06215255      0.00000000
lattice_vector      0.00000000      0.00000000     99.93951163
atom_frac       0.03284275      0.06601226      0.02682670 Mo
atom_frac       0.16392480      0.12984626      0.04374445 Se
atom_frac       0.16860400      0.13439558      0.01066894 Se
atom_frac       0.03540626      0.26771093      0.02665343 Mo
atom_frac       0.17060795      0.33794592      0.04314849 Se
atom_frac       0.17063636      0.33270455      0.01016318 Se
atom_frac       0.03284175      0.46681931      0.02647679 Mo
atom_frac       0.16854026      0.53423406      0.04264292 Se
atom_frac       0.16388423      0.53408880      0.00955890 Se
atom_frac       0.03313980      0.66669327      0.02656657 Mo
atom_frac       0.16681244      0.73253437      0.04304328 Se
atom_frac       0.16557767      0.73468918      0.00985926 Se
atom_frac       0.03314064      0.86646620      0.02673603 Mo
atom_frac       0.16558239      0.93092181      0.04344746 Se
atom_frac       0.16683207      0.93430193      0.01026005 Se
atom_frac       0.23273741      0.06534340      0.02719060 Mo
atom_frac       0.36538008      0.12908396      0.04389231 Se
atom_frac       0.36681647      0.13467517      0.01077649 Se
atom_frac       0.23516864      0.26521056      0.02764308 Mo
atom_frac       0.35842450      0.31843011      0.04571945 Se
atom_frac       0.37530921      0.34696329      0.01309629 Se
atom_frac       0.23507906      0.46997706      0.02567177 Mo
atom_frac       0.37512999      0.52836453      0.04022041 Se
atom_frac       0.35838392      0.54000190      0.00759311 Se
atom_frac       0.23272105      0.66741188      0.02611416 Mo
atom_frac       0.36681318      0.73213222      0.04252545 Se
atom_frac       0.36533513      0.73635475      0.00940526 Se
atom_frac       0.23309084      0.86655574      0.02665265 Mo
atom_frac       0.36646595      0.93143355      0.04325071 Se
atom_frac       0.36645793      0.93504942      0.01005454 Se
atom_frac       0.43340502      0.06599068      0.02694076 Mo
atom_frac       0.56728306      0.13256559      0.04342901 Se
atom_frac       0.56664239      0.13467977      0.01034443 Se
atom_frac       0.43221393      0.26453660      0.02783365 Mo
atom_frac       0.56732128      0.33318720      0.04402332 Se
atom_frac       0.56371555      0.33396503      0.01090855 Se
atom_frac       0.56161807      0.52773521      0.04257793 Se
atom_frac       0.56190333      0.53392799      0.01067082 Se
atom_frac       0.43212719      0.66766041      0.02545605 Mo
atom_frac       0.56366187      0.72965155      0.04238081 Se
atom_frac       0.56728620      0.73409640      0.00926770 Se
atom_frac       0.43338104      0.86741505      0.02636234 Mo
atom_frac       0.56664142      0.93191749      0.04295764 Se
atom_frac       0.56726313      0.93469660      0.00987081 Se
atom_frac       0.63375722      0.06685245      0.02665066 Mo
atom_frac       0.76711128      0.13337340      0.04321239 Se
atom_frac       0.76712451      0.13374391      0.01008997 Se
atom_frac       0.63343630      0.26722423      0.02705313 Mo
atom_frac       0.76814081      0.33385063      0.04333499 Se
atom_frac       0.76552681      0.33283833      0.01022772 Se
atom_frac       0.63429983      0.46799779      0.02743861 Mo
atom_frac       0.76982786      0.53463599      0.04342167 Se
atom_frac       0.76441442      0.53255733      0.01023604 Se
atom_frac       0.63427543      0.66620138      0.02584401 Mo
atom_frac       0.76434231      0.73178769      0.04305553 Se
atom_frac       0.76984964      0.73519258      0.00987187 Se
atom_frac       0.63340679      0.86615773      0.02624244 Mo
atom_frac       0.76549077      0.93262734      0.04307027 Se
atom_frac       0.76813634      0.93427149      0.00996456 Se
atom_frac       0.83386777      0.06704666      0.02663849 Mo
atom_frac       0.96731835      0.13436272      0.04325002 Se
atom_frac       0.96800369      0.13396412      0.01015841 Se
atom_frac       0.83387564      0.26681111      0.02666344 Mo
atom_frac       0.96797185      0.33401815      0.04314613 Se
atom_frac       0.96731498      0.33293026      0.01005280 Se
atom_frac       0.83347871      0.46652661      0.02666813 Mo
atom_frac       0.96740882      0.53354204      0.04315868 Se
atom_frac       0.96565137      0.53333793      0.00998368 Se
atom_frac       0.83340699      0.66670191      0.02664770 Mo
atom_frac       0.96656056      0.73294003      0.04321302 Se
atom_frac       0.96658721      0.73363675      0.01008812 Se
atom_frac       0.83349947      0.86694041      0.02662956 Mo
atom_frac       0.96564576      0.93231214      0.04331861 Se
atom_frac       0.96745162      0.93390607      0.01014286 Se
# 
# What follows is the current estimated Hessian matrix constructed by the BFGS algorithm.
# This is NOT the true Hessian matrix of the system.
# If you do not want this information here, switch it off using the "hessian_to_restart_geometry" keyword.
# 
trust_radius             0.0160812937
hessian_file
