#
# temporary structure-file for finite-difference calculation of forces
# displacement   0.0025 of \# atom     3 direction     2
#
lattice_vector   15.90000000    0.00000000    0.00000000
lattice_vector   -7.95000000   13.76980392    0.00000000
lattice_vector    0.00000000    0.00000000  100.00000000
atom    0.01485020    0.94376266    2.62263280   W
atom    1.64999261    1.95220318    4.12238787   S
atom    1.57545213    1.84879345    0.99282595   S
atom   -1.53580241    3.70321603    2.63819345   W
atom    0.21655087    4.71494468    4.11143043   S
atom    0.00622511    4.59347562    0.97405838   S
atom   -3.15021011    6.42589937    2.62259768   W
atom   -1.45929178    7.33772783    4.12235024   S
atom   -1.58612749    7.32486100    0.99276226   S
atom   -4.77011783    9.17380322    2.61754755   W
atom   -3.15023687   10.08409525    4.16040278   S
atom   -3.19013360   10.09585343    1.03291437   S
atom   -6.36533242   11.93674516    2.61756488   W
atom   -4.76703442   12.88440732    4.16042279   S
atom   -4.77680637   12.84400495    1.03293943   S
atom    3.18019547    0.94945283    2.56679936   W
atom    4.71795106    1.91066773    4.13629986   S
atom    4.79379713    1.84621546    0.99958830   S
atom    1.67783290    3.74230403    2.48611385   W
atom    3.20768607    4.59900077    0.86126024   S
atom    0.10485660    6.46677690    2.48606212   W
atom    1.61167633    7.36335720    0.86118168   S
atom   -1.56259037    9.16429090    2.56675214   W
atom    0.03872780   10.01541146    4.13624706   S
atom    0.02079465   10.11336047    0.99951699   S
atom   -3.17714756   11.93545636    2.60521862   W
atom   -1.59679888   12.84786808    4.18496185   S
atom   -1.57909584   12.85810867    1.04826244   S
atom    6.35365846    0.92787001    2.61883090   W
atom    7.92729523    1.83873122    4.21235907   S
atom    7.96621705    1.83871925    1.07540237   S
atom    4.69926529    3.70390475    2.51854015   W
atom    6.23951407    4.58676052    4.15286027   S
atom    6.36085528    4.56792880    1.01679297   S
atom    3.11178990    6.38661137    2.42350473   W
atom    4.57052456    7.22876813    4.10494378   S
atom    4.74146974    7.32744197    0.95858698   S
atom    1.58233079    9.10268097    2.51844772   W
atom    3.11698635    9.99513151    4.15281253   S
atom    3.16139157   10.10964134    1.01672719   S
atom    0.00540801   11.92339283    2.61880195   W
atom    1.58103238   12.83079478    4.21233866   S
atom    1.60048127   12.86451558    1.07537851   S
atom    9.54225946    0.91930597    2.65880107   W
atom   11.13663510    1.83981077    4.23684412   S
atom   11.14095276    1.84229907    1.10118187   S
atom    7.93035568    3.67228846    2.63938889   W
atom    9.52065838    4.59500805    4.22116525   S
atom    9.54730488    4.58020708    1.08741888   S
atom    6.29271135    6.39955690    2.58679717   W
atom    7.88548269    7.31983800    4.18380563   S
atom    7.93708830    7.32816886    1.06117332   S
atom    4.71350443    9.13482862    2.58676940   W
atom    6.30687551   10.05402448    4.18379903   S
atom    6.33992110   10.09455534    1.06115793   S
atom    3.17044910   11.91667518    2.63935391   W
atom    4.76468551   12.83252604    4.22115556   S
atom    4.76522249   12.86301037    1.08740174   S
atom   12.73221276    0.92541928    2.66693503   W
atom   14.35427297    1.86917561    4.21467988   S
atom   14.30687378    1.85409996    1.08419649   S
atom   11.14256094    3.67882666    2.66693539   W
atom   12.77093143    4.61168114    4.21466868   S
atom   12.73417286    4.57813367    1.08418984   S
atom    9.52883751    6.42115799    2.64325617   W
atom   11.14841159    7.34566006    4.19520842   S
atom   11.12664790    7.32655046    1.06541297   S
atom    7.92449439    9.16516656    2.62776375   W
atom    9.53189069   10.09316192    4.18550624   S
atom    9.52225386   10.08761092    1.05799752   S
atom    6.35025492   11.92653911    2.64325677   W
atom    7.96070715   12.86684328    4.19521871   S
atom    7.93328749   12.85756668    1.06543721   S
