#

lattice_vector      16.238659     -0.000     -0.00
lattice_vector      -8.11989635    14.06215255     -0.00
lattice_vector      0.0000      0.0000     99.93951163


atom_frac 0.03410708 0.06810511 0.02665000 Mo
atom_frac 0.16800784 0.13601461 0.04323103 Se
atom_frac 0.16800784 0.13601461 0.01006897 Se
atom_frac 0.03650791 0.26995274 0.02665000 Mo
atom_frac 0.17465543 0.34269806 0.04319369 Se
atom_frac 0.17465543 0.34269806 0.01010631 Se
atom_frac 0.03650992 0.46655368 0.02665000 Mo
atom_frac 0.17465659 0.53195106 0.04319390 Se
atom_frac 0.17465659 0.53195106 0.01010610 Se
atom_frac 0.03410368 0.66599753 0.02665000 Mo
atom_frac 0.16800845 0.73199031 0.04323088 Se
atom_frac 0.16800845 0.73199031 0.01006912 Se
atom_frac 0.03333047 0.86666530 0.02665000 Mo
atom_frac 0.16730024 0.93364839 0.04322084 Se
atom_frac 0.16730024 0.93364839 0.01007916 Se
atom_frac 0.23400017 0.06810399 0.02665000 Mo
atom_frac 0.36725386 0.13543545 0.04325363 Se
atom_frac 0.36725386 0.13543545 0.01004637 Se
atom_frac 0.23563075 0.27125279 0.02665000 Mo
atom_frac 0.36805007 0.34269813 0.04319372 Se
atom_frac 0.36805007 0.34269813 0.01010628 Se
atom_frac 0.25211021 0.47605425 0.02665000 Mo
atom_frac 0.23562988 0.66436985 0.02665000 Mo
atom_frac 0.36804905 0.72534948 0.04319380 Se
atom_frac 0.36804905 0.72534948 0.01010620 Se
atom_frac 0.23400117 0.86589349 0.02665000 Mo
atom_frac 0.36725444 0.93181626 0.04325357 Se
atom_frac 0.36725444 0.93181626 0.01004643 Se
atom_frac 0.43309141 0.06654487 0.02665000 Mo
atom_frac 0.56642584 0.13321373 0.04328034 Se
atom_frac 0.56642584 0.13321373 0.01001966 Se
atom_frac 0.43344690 0.26994950 0.02665000 Mo
atom_frac 0.56600817 0.33399323 0.04330046 Se
atom_frac 0.56600817 0.33399323 0.00999954 Se
atom_frac 0.42394339 0.47605410 0.02665000 Mo
atom_frac 0.55729457 0.53195345 0.04319394 Se
atom_frac 0.55729457 0.53195345 0.01010606 Se
atom_frac 0.42394225 0.64789056 0.02665000 Mo
atom_frac 0.55729497 0.72535007 0.04319386 Se
atom_frac 0.55729497 0.72535007 0.01010614 Se
atom_frac 0.43344927 0.86349406 0.02665000 Mo
atom_frac 0.56600935 0.93202039 0.04330060 Se
atom_frac 0.56600935 0.93202039 0.00999940 Se
atom_frac 0.63303435 0.06606641 0.02665000 Mo
atom_frac 0.76679113 0.13321447 0.04328041 Se
atom_frac 0.76679113 0.13321447 0.01001959 Se
atom_frac 0.63303307 0.26697022 0.02665000 Mo
atom_frac 0.76679023 0.33357706 0.04328037 Se
atom_frac 0.76679023 0.33357706 0.01001963 Se
atom_frac 0.63004346 0.46655437 0.02665000 Mo
atom_frac 0.76456058 0.53274666 0.04325352 Se
atom_frac 0.76456058 0.53274666 0.01004648 Se
atom_frac 0.62873469 0.66437124 0.02665000 Mo
atom_frac 0.76397782 0.73199150 0.04323085 Se
atom_frac 0.76397782 0.73199150 0.01006915 Se
atom_frac 0.63004425 0.86349583 0.02665000 Mo
atom_frac 0.76456164 0.93181745 0.04325348 Se
atom_frac 0.76456164 0.93181745 0.01004652 Se
atom_frac 0.83345480 0.06654663 0.02665000 Mo
atom_frac 0.96818583 0.13543664 0.04325355 Se
atom_frac 0.96818583 0.13543664 0.01004645 Se
atom_frac 0.83393991 0.26697049 0.02665000 Mo
atom_frac 0.96798890 0.33399342 0.04330051 Se
atom_frac 0.96798890 0.33399342 0.00999949 Se
atom_frac 0.83345500 0.46691012 0.02665000 Mo
atom_frac 0.96818440 0.53274537 0.04325356 Se
atom_frac 0.96818440 0.53274537 0.01004644 Se
atom_frac 0.83189000 0.66600024 0.02665000 Mo
atom_frac 0.96634679 0.73269685 0.04322086 Se
atom_frac 0.96634679 0.73269685 0.01007914 Se
atom_frac 0.83189229 0.86589428 0.02665000 Mo
atom_frac 0.96634736 0.93365044 0.04322092 Se
atom_frac 0.96634736 0.93365044 0.01007908 Se
