# 
# This is the geometry file that corresponds to the current relaxation step.
# If you do not want this file to be written, set the "write_restart_geometry" flag to .false.
#  aims_uuid : 09CEC41C-DE99-4520-AF29-C94886349AC4                                
# 
  set_vacuum_level       103.288256
lattice_vector     16.31232095      0.00000000      0.00000000
lattice_vector     -8.15665875     14.12581815      0.00000000
lattice_vector      0.00000000      0.00000000    103.32585319
atom       0.00692823      0.94480960     51.62759380 Mo
atom       1.64611302      1.89105935     53.29036949 Se
atom       1.64609000      1.89103541     49.96476548 Se
atom      -1.63135676      3.76802710     51.62757427 Mo
atom       0.03008677      4.69927351     53.28392477 Se
atom       0.03005655      4.69928602     49.97120833 Se
atom      -3.28062901      6.58274528     51.62759184 Mo
atom      -1.63146143      7.52409369     53.28196605 Se
atom      -1.63147654      7.52411408     49.97317985 Se
atom      -4.91022819      9.40488405     51.62759355 Mo
atom      -3.27031160     10.36228130     53.28196669 Se
atom      -3.27033788     10.36225277     49.97319235 Se
atom      -6.52355747     12.24037734     51.62758062 Mo
atom      -4.88624583     13.21342940     53.28393537 Se
atom      -4.88626252     13.21341091     49.97122935 Se
atom       3.28394321      0.98950506     51.62756657 Mo
atom       4.94927952      2.01435830     53.27870746 Se
atom       4.94927154      2.01437164     49.97641771 Se
atom       1.68412026      3.76015473     51.62756762 Mo
atom       3.40443489      4.68978965     53.27866650 Se
atom       3.40444076      4.68977548     49.97645396 Se
atom       0.01771085      6.58275802     51.62758755 Mo
atom       1.66101274      7.51546145     53.28428257 Se
atom       1.66101920      7.51550427     49.97084795 Se
atom      -1.63156840      9.41621547     51.62756848 Mo
atom       0.00717187     10.36226944     53.28195882 Se
atom       0.00719154     10.36225442     49.97318754 Se
atom      -3.26114975     12.26107734     51.62757280 Mo
atom      -1.63167601     13.21766766     53.28431517 Se
atom      -1.63166851     13.21765807     49.97083756 Se
atom       6.52487431      0.99960424     51.62756276 Mo
atom       8.10048385      2.01432831     53.27869438 Se
atom       8.10050738      2.01435991     49.97645322 Se
atom       5.12561672      3.89982664     51.62756605 Mo
atom       3.31338192      6.56160147     51.62757832 Mo
atom       4.98000828      7.41866164     53.27869879 Se
atom       4.98003582      7.41868988     49.97646463 Se
atom       1.64711178      9.40488519     51.62760532 Mo
atom       3.28448351     10.33596844     53.28393163 Se
atom       3.28452288     10.33599582     49.97124326 Se
atom      -0.00217231     12.26104695     51.62758304 Mo
atom       1.62288894     13.21340680     53.28394450 Se
atom       1.62294351     13.21343121     49.97123785 Se
atom       9.76587042      0.98948160     51.62756426 Mo
atom      11.40368019      1.89106190     53.29038965 Se
atom      11.40368067      1.89103649     49.96479454 Se
atom       7.92400164      3.89983948     51.62758673 Mo
atom       9.64513187      4.68979899     53.27868747 Se
atom       9.64514144      4.68978662     49.97648095 Se
atom       6.52472473      6.32306192     51.62756783 Mo
atom       8.06935594      7.41863197     53.27872683 Se
atom       8.06936227      7.41866705     49.97646368 Se
atom       4.92492846      9.37325635     51.62758190 Mo
atom       6.52459372     10.34086867     53.29041281 Se
atom       6.52458515     10.34087293     49.96479561 Se
atom       3.26023272     12.24037273     51.62759265 Mo
atom       4.89065050     13.18165779     53.28779195 Se
atom       4.89064945     13.18165205     49.96738866 Se
atom      13.04290100      0.94480415     51.62758489 Mo
atom      14.68105612      1.88549375     53.28780684 Se
atom      14.68104266      1.88548720     49.96737173 Se
atom      11.36552507      3.76014866     51.62758305 Mo
atom      13.01950853      4.69926866     53.28393065 Se
atom      13.01950745      4.69929314     49.97121857 Se
atom       9.73602358      6.56162849     51.62757480 Mo
atom      11.38837790      7.51547314     53.28430570 Se
atom      11.38836712      7.51551201     49.97085363 Se
atom       8.12427622      9.37327621     51.62760145 Mo
atom       9.76467433     10.33597776     53.28392908 Se
atom       9.76467777     10.33596994     49.97123931 Se
atom       6.52452447     12.23348034     51.62760604 Mo
atom       8.15834492     13.18166714     53.28780079 Se
atom       8.15833472     13.18163334     49.96737509 Se
# 
# What follows is the current estimated Hessian matrix constructed by the BFGS algorithm.
# This is NOT the true Hessian matrix of the system.
# If you do not want this information here, switch it off using the "hessian_to_restart_geometry" keyword.
# 
trust_radius             0.0009867386
hessian_file
