#

lattice_vector      15.66599045     -0.00000000      0.00000000
lattice_vector     -7.8329228      13.5670203     -0.00000000
lattice_vector      0.00000000      0.00000000     99.99930752



atom_frac 0.13358213 0.06681266 0.03102489 Mo
atom_frac 0.06686127 0.13371986 0.04661946 S
atom_frac 0.06658870 0.13317766 0.01543395 S
atom_frac 0.13338893 0.26677994 0.03096821 Mo
atom_frac 0.06567197 0.33360473 0.04646656 S
atom_frac 0.06631344 0.33272993 0.01528999 S
atom_frac 0.13278018 0.46638647 0.03079782 Mo
atom_frac 0.06415092 0.53209703 0.04621708 S
atom_frac 0.06660892 0.53332457 0.01512548 S
atom_frac 0.13277910 0.66643742 0.03079755 Mo
atom_frac 0.06567254 0.73211012 0.04646606 S
atom_frac 0.06631524 0.73362583 0.01528944 S
atom_frac 0.13338883 0.86665223 0.03096773 Mo
atom_frac 0.06686143 0.93318101 0.04661910 S
atom_frac 0.06658917 0.93345280 0.01543373 S
atom_frac 0.33442217 0.06776137 0.03081050 Mo
atom_frac 0.26802079 0.13402881 0.04651343 S
atom_frac 0.26630260 0.13317105 0.01532746 S
atom_frac 0.33442479 0.26670187 0.03081087 Mo
atom_frac 0.26793340 0.33360276 0.04646652 S
atom_frac 0.26641694 0.33272986 0.01529001 S
atom_frac 0.33360412 0.46638547 0.03079801 Mo
atom_frac 0.26659708 0.53319343 0.04636679 S
atom_frac 0.26653501 0.53306743 0.01522365 S
atom_frac 0.33334617 0.66669433 0.03079057 Mo
atom_frac 0.26659591 0.73344423 0.04636647 S
atom_frac 0.26653422 0.73350632 0.01522349 S
atom_frac 0.33360297 0.86726105 0.03079762 Mo
atom_frac 0.26793116 0.93436827 0.04646613 S
atom_frac 0.26641537 0.93372539 0.01528948 S
atom_frac 0.53458079 0.06916611 0.03041725 Mo
atom_frac 0.47244033 0.13885964 0.04602215 S
atom_frac 0.46627816 0.13463225 0.01479996 S
atom_frac 0.53719674 0.26861984 0.03002716 Mo
atom_frac 0.47244471 0.33362005 0.04602241 S
atom_frac 0.46627950 0.33168477 0.01480014 S
atom_frac 0.53458643 0.46545641 0.03041753 Mo
atom_frac 0.46794730 0.53209372 0.04621738 S
atom_frac 0.46671828 0.53332353 0.01512603 S
atom_frac 0.53365701 0.66643675 0.03079810 Mo
atom_frac 0.46684762 0.73344331 0.04636681 S
atom_frac 0.46697449 0.73350601 0.01522381 S
atom_frac 0.53365532 0.86726048 0.03079799 Mo
atom_frac 0.46794378 0.93588905 0.04621721 S
atom_frac 0.46671661 0.93343101 0.01512569 S
atom_frac 0.73333686 0.06776458 0.03081119 Mo
atom_frac 0.66641792 0.13886214 0.04602256 S
atom_frac 0.66835591 0.13463599 0.01480062 S
atom_frac 0.73141764 0.26862264 0.03002789 Mo
atom_frac 0.66668028 0.33336180 0.01432685 S
atom_frac 0.73142198 0.46284693 0.03002688 Mo
atom_frac 0.66642260 0.52759779 0.04602229 S
atom_frac 0.66835733 0.53376392 0.01480001 S
atom_frac 0.73334016 0.66561793 0.03081089 Mo
atom_frac 0.66643949 0.73210868 0.04646664 S
atom_frac 0.66731211 0.73362524 0.01529003 S
atom_frac 0.73326190 0.86665200 0.03096832 Mo
atom_frac 0.66643726 0.93436929 0.04646665 S
atom_frac 0.66731166 0.93372727 0.01529015 S
atom_frac 0.93322944 0.06681365 0.03102520 Mo
atom_frac 0.86600994 0.13403154 0.04651385 S
atom_frac 0.86686825 0.13317195 0.01532792 S
atom_frac 0.93227641 0.26670419 0.03081109 Mo
atom_frac 0.86117716 0.33362238 0.04602247 S
atom_frac 0.86540352 0.33168418 0.01480050 S
atom_frac 0.93087395 0.46545972 0.03041710 Mo
atom_frac 0.86117989 0.52760096 0.04602186 S
atom_frac 0.86540885 0.53376437 0.01479978 S
atom_frac 0.93227937 0.66562019 0.03081042 Mo
atom_frac 0.86601378 0.73202293 0.04651339 S
atom_frac 0.86687040 0.73374013 0.01532742 S
atom_frac 0.93322940 0.86646033 0.03102488 Mo
atom_frac 0.86632253 0.93318155 0.04661945 S
atom_frac 0.86686368 0.93345337 0.01543404 S
