# 
# This is the geometry file that corresponds to the current relaxation step.
# If you do not want this file to be written, set the "write_restart_geometry" flag to .false.
#  aims_uuid : 7D5E9203-EA34-4D06-AEB5-A89DCE7E7155                                
# 
  set_vacuum_level        53.046948
lattice_vector     15.66599045      0.00000000      0.00000000
lattice_vector     -7.83292280     13.56702030      0.00000000
lattice_vector      0.00000000      0.00000000     99.99930752
atom       1.56916564      0.90632777      3.10331059 Mo
atom       0.00001379      1.81468557      4.64785799 S
atom       0.00000872      1.80621845      1.55857192 S
atom       0.00001590      3.61894566      3.09642768 Mo
atom      -1.58509643      4.52643580      4.63106774 S
atom      -1.56842614      4.51316787      1.54355152 S
atom      -1.57322794      6.32744771      3.07822402 Mo
atom      -3.16165485      7.21966582      4.60619536 S
atom      -3.13365453      7.23584826      1.52504862 S
atom      -3.14014929      9.04140303      3.07824641 Mo
atom      -4.70580418      9.93163132      4.63107685 S
atom      -4.70894231      9.95270924      1.54357680 S
atom      -4.69916368     11.75813678      3.09645436 Mo
atom      -6.26169305     12.66025823      4.64787214 S
atom      -6.26900122     12.66446914      1.55857237 S
atom       4.70697753      0.92124529      3.08119515 Mo
atom       3.14904643      1.81846819      4.63807362 S
atom       3.12813563      1.80636057      1.54805374 S
atom       3.15102698      3.61627415      3.08116237 Mo
atom       1.58514713      4.52642963      4.63106799 S
atom       1.56847352      4.51316695      1.54355138 S
atom       1.57329436      6.32744304      3.07822795 Mo
atom       0.00004016      7.23391295      4.62036340 S
atom       0.00004334      7.23195881      1.53548849 S
atom       0.00004641      9.04505929      3.07741940 Mo
atom      -1.56845735      9.95060725      4.62038125 S
atom      -1.57016418      9.95162026      1.53552217 S
atom      -1.56687210     11.76634354      3.07827718 Mo
atom      -3.12066996     12.67710015      4.63110416 S
atom      -3.14047495     12.66928108      1.54359201 S
atom       7.83299438      0.93653441      3.04157487 Mo
atom       6.31605560      1.88464663      4.58802648 S
atom       6.25061205      1.83127767      1.49658284 S
atom       6.31922570      3.64871502      3.00336800 Mo
atom       4.78991422      4.52803245      4.58799101 S
atom       4.71099743      4.49800950      1.49655179 S
atom       4.72729091      6.31579720      3.04152695 Mo
atom       3.16174087      7.21965753      4.60620095 S
atom       3.13374204      7.23584645      1.52506081 S
atom       3.14024502      9.04140334      3.07825785 Mo
atom       1.56856193      9.95060512      4.62038833 S
atom       1.57027808      9.95161991      1.53552898 S
atom       1.56699181     11.76634353      3.07828481 Mo
atom       0.00006414     12.69580776      4.60625057 S
atom       0.00007031     12.66347673      1.52511482 S
atom      10.95901064      0.92125616      3.08120941 Mo
atom       9.34994202      1.88465788      4.58803607 S
atom       9.41539630      1.83128764      1.49659377 S
atom       9.34678487      3.64872343      3.00337973 Mo
atom       7.83301565      4.52269331      1.43953524 S
atom       7.83302489      6.27066667      3.00336178 Mo
atom       6.30688428      7.15541767      4.58798114 S
atom       6.29341645      7.23879832      1.49656090 S
atom       6.27708549      9.03064486      3.08118006 Mo
atom       4.70591844      9.93162656      4.63108950 S
atom       4.70905437      9.95270731      1.54358951 S
atom       4.69928592     11.75813586      3.09646692 Mo
atom       3.12080300     12.67710450      4.63111529 S
atom       3.14061200     12.66928723      1.54360621 S
atom      14.09683193      0.90633096      3.10331723 Mo
atom      12.51696411      1.81847548      4.63808319 S
atom      12.53787100      1.80636150      1.54806291 S
atom      12.51499652      3.61627809      3.08116643 Mo
atom      10.87612516      4.52804188      4.58799035 S
atom      10.95503594      4.49801070      1.49655836 S
atom      10.93877608      6.31580992      3.04151766 Mo
atom       9.35919288      7.15542935      4.58797082 S
atom       9.37265591      7.23879862      1.49655647 S
atom       9.38900580      9.03065153      3.08116982 Mo
atom       7.83305551      9.93125582      4.63807254 S
atom       7.83304822      9.95540797      1.54804925 S
atom       7.83305772     11.75552523      3.10331434 Mo
atom       6.26183624     12.66025923      4.64787886 S
atom       6.26913431     12.66447007      1.55857992 S
# 
# What follows is the current estimated Hessian matrix constructed by the BFGS algorithm.
# This is NOT the true Hessian matrix of the system.
# If you do not want this information here, switch it off using the "hessian_to_restart_geometry" keyword.
# 
trust_radius             0.0003484431
hessian_file
