#
lattice_vector  15.66599045 -0.00000000 0.00000000
lattice_vector  -7.83292280 13.56702030 -0.00000000
lattice_vector  0.00000000 0.00000000 99.99930752
#
atom 1.56935797 0.90644871 3.10246752 Mo
atom 0.00003068 1.81418006 4.66191372 S
atom 0.00000761 1.80682402 1.54338431 S
atom 0.00000303 3.61940886 3.09679956 Mo
atom -1.58428364 4.52602214 4.64662382 S
atom -1.56738214 4.51415371 1.52898841 S
atom -1.57303618 6.32747471 3.07976067 Mo
atom -3.16288726 7.21897121 4.62167600 S
atom -3.13399548 7.23562527 1.51253753 S
atom -3.14003675 9.04157001 3.07973367 Mo
atom -4.70573667 9.93255286 4.64657382 S
atom -4.70754057 9.95311653 1.52893341 S
atom -4.69875188 11.75788840 3.09675156 Mo
atom -6.26208429 12.66048571 4.66187772 S
atom -6.26847842 12.66417309 1.54336231 S
atom 4.70828494 0.91931988 3.08102866 Mo
atom 3.14897381 1.81837159 4.65131079 S
atom 3.12877543 1.80673434 1.53273539 S
atom 3.15004041 3.61834968 3.08106566 Mo
atom 1.58435742 4.52599542 4.64661982 S
atom 1.56743793 4.51415277 1.52899041 S
atom 1.57307758 6.32746114 3.07977967 Mo
atom 0.00004433 7.23384609 4.63664689 S
atom 0.00005889 7.23213664 1.52235446 S
atom 0.00003270 9.04505551 3.07903568 Mo
atom -1.56852305 9.95065276 4.63661489 S
atom -1.56997583 9.95149513 1.52233846 S
atom -1.56696791 11.76614827 3.07974067 Mo
atom -3.12142753 12.67659329 4.64658082 S
atom -3.14013825 12.66787132 1.52893741 S
atom 7.83296475 0.93837802 3.04170394 Mo
atom 6.31356886 1.88391155 4.60218313 S
atom 6.25014518 1.82655847 1.47998575 S
atom 6.31164053 3.64437082 3.00269521 Mo
atom 4.78809422 4.52622999 4.60220913 S
atom 4.70666900 4.49997401 1.48000375 S
atom 4.72894178 6.31485656 3.04173194 Mo
atom 3.16300890 7.21892630 4.62170600 S
atom 3.13412208 7.23561116 1.51259253 S
atom 3.14011801 9.04156092 3.07978867 Mo
atom 1.56862553 9.95064028 4.63664889 S
atom 1.57012195 9.95149093 1.52237046 S
atom 1.56705476 11.76614054 3.07977767 Mo
atom 0.00005611 12.69722574 4.62168900 S
atom 0.00008491 12.66387746 1.51255853 S
atom 10.95765352 0.91936343 3.08109766 Mo
atom 9.35240035 1.88394547 4.60222413 S
atom 9.41586399 1.82660921 1.48005175 S
atom 9.35428136 3.64440881 3.00276821 Mo
atom 7.83300966 4.52272631 1.43267508 S
atom 7.83300548 6.27945370 3.00266721 Mo
atom 6.30753733 7.15792993 4.60219713 S
atom 6.28954797 7.24158594 1.47999075 S
atom 6.27476608 9.03045197 3.08106766 Mo
atom 4.70588391 9.93253332 4.64663182 S
atom 4.70767527 9.95310852 1.52899241 S
atom 4.69885571 11.75788528 3.09681056 Mo
atom 3.12155724 12.67660713 4.64663282 S
atom 3.14028447 12.66789683 1.52900441 S
atom 14.09661733 0.90646215 3.10249852 Mo
atom 12.51704474 1.81840862 4.65135279 S
atom 12.53722412 1.80674655 1.53278139 S
atom 12.51596001 3.61838116 3.08108766 Mo
atom 10.87795482 4.52626160 4.60221513 S
atom 10.95934670 4.49996600 1.48003975 S
atom 10.93715236 6.31490147 3.04168894 Mo
atom 9.35857834 7.15797293 4.60215413 S
atom 9.37655168 7.24159204 1.47996775 S
atom 9.39132814 9.03048263 3.08102066 Mo
atom 7.83308451 9.93136995 4.65130679 S
atom 7.83305361 9.95466724 1.53273139 S
atom 7.83304599 11.75528489 3.10246652 Mo
atom 6.26226144 12.66049303 4.66191272 S
atom 6.26860995 12.66418082 1.54339331 S
