# 
# This is the geometry file that corresponds to the current relaxation step.
# If you do not want this file to be written, set the "write_restart_geometry" flag to .false.
#  aims_uuid : 829E24D9-91D5-4677-AC78-77010B3B1AA9                                
# 
  set_vacuum_level        53.072496
lattice_vector     15.90000000      0.00000000      0.00000000
lattice_vector     -7.95000000     13.76980390      0.00000000
lattice_vector      0.00000000      0.00000000    100.00000000
atom       1.59000303      0.91837963      3.07249914 Mo
atom      -0.00000202      1.83636068      4.63508305 S
atom      -0.00000201      1.83636069      1.50991281 S
atom       0.00000303      3.67234041      3.07249914 Mo
atom      -1.59000202      4.59032146      4.63508305 S
atom      -1.59000201      4.59032147      1.50991281 S
atom      -1.58999697      6.42630119      3.07249914 Mo
atom      -3.18000202      7.34428224      4.63508305 S
atom      -3.18000201      7.34428225      1.50991281 S
atom      -3.17999697      9.18026197      3.07249914 Mo
atom      -4.77000202     10.09824302      4.63508305 S
atom      -4.77000201     10.09824303      1.50991281 S
atom      -4.76999697     11.93422275      3.07249914 Mo
atom      -6.36000202     12.85220380      4.63508305 S
atom      -6.36000201     12.85220381      1.50991281 S
atom       4.77000303      0.91837963      3.07249914 Mo
atom       3.17999798      1.83636068      4.63508305 S
atom       3.17999799      1.83636069      1.50991281 S
atom       3.18000303      3.67234041      3.07249914 Mo
atom       1.58999798      4.59032146      4.63508305 S
atom       1.58999799      4.59032147      1.50991281 S
atom       1.59000303      6.42630119      3.07249914 Mo
atom      -0.00000202      7.34428224      4.63508305 S
atom      -0.00000201      7.34428225      1.50991281 S
atom       0.00000303      9.18026197      3.07249914 Mo
atom      -1.59000202     10.09824302      4.63508305 S
atom      -1.59000201     10.09824303      1.50991281 S
atom      -1.58999697     11.93422275      3.07249914 Mo
atom      -3.18000202     12.85220380      4.63508305 S
atom      -3.18000201     12.85220381      1.50991281 S
atom       7.95000303      0.91837963      3.07249914 Mo
atom       6.35999798      1.83636068      4.63508305 S
atom       6.35999799      1.83636069      1.50991281 S
atom       6.36000303      3.67234041      3.07249914 Mo
atom       4.76999798      4.59032146      4.63508305 S
atom       4.76999799      4.59032147      1.50991281 S
atom       4.77000303      6.42630119      3.07249914 Mo
atom       3.17999798      7.34428224      4.63508305 S
atom       3.17999799      7.34428225      1.50991281 S
atom       3.18000303      9.18026197      3.07249914 Mo
atom       1.58999798     10.09824302      4.63508305 S
atom       1.58999799     10.09824303      1.50991281 S
atom       1.59000303     11.93422275      3.07249914 Mo
atom      -0.00000202     12.85220380      4.63508305 S
atom      -0.00000201     12.85220381      1.50991281 S
atom      11.13000303      0.91837963      3.07249914 Mo
atom       9.53999798      1.83636068      4.63508305 S
atom       9.53999799      1.83636069      1.50991281 S
atom       9.54000303      3.67234041      3.07249914 Mo
atom       7.94999798      4.59032146      4.63508305 S
atom       7.94999799      4.59032147      1.50991281 S
atom       7.95000303      6.42630119      3.07249914 Mo
atom       6.35999798      7.34428224      4.63508305 S
atom       6.35999799      7.34428225      1.50991281 S
atom       6.36000303      9.18026197      3.07249914 Mo
atom       4.76999798     10.09824302      4.63508305 S
atom       4.76999799     10.09824303      1.50991281 S
atom       4.77000303     11.93422275      3.07249914 Mo
atom       3.17999798     12.85220380      4.63508305 S
atom       3.17999799     12.85220381      1.50991281 S
atom      14.31000303      0.91837963      3.07249914 Mo
atom      12.71999798      1.83636068      4.63508305 S
atom      12.71999799      1.83636069      1.50991281 S
atom      12.72000303      3.67234041      3.07249914 Mo
atom      11.12999798      4.59032146      4.63508305 S
atom      11.12999799      4.59032147      1.50991281 S
atom      11.13000303      6.42630119      3.07249914 Mo
atom       9.53999798      7.34428224      4.63508305 S
atom       9.53999799      7.34428225      1.50991281 S
atom       9.54000303      9.18026197      3.07249914 Mo
atom       7.94999798     10.09824302      4.63508305 S
atom       7.94999799     10.09824303      1.50991281 S
atom       7.95000303     11.93422275      3.07249914 Mo
atom       6.35999798     12.85220380      4.63508305 S
atom       6.35999799     12.85220381      1.50991281 S
# 
# What follows is the current estimated Hessian matrix constructed by the BFGS algorithm.
# This is NOT the true Hessian matrix of the system.
# If you do not want this information here, switch it off using the "hessian_to_restart_geometry" keyword.
# 
trust_radius             0.0147368517
hessian_file
