# 
# This is the geometry file that corresponds to the current relaxation step.
# If you do not want this file to be written, set the "write_restart_geometry" flag to .false.
#  aims_uuid : BCB5D32C-F81E-4219-A6D8-F890DDB8ECB8                                
# 
  set_vacuum_level        53.072500
lattice_vector     15.90000000      0.00000000      0.00000000
lattice_vector     -7.95000000     13.76980390      0.00000000
lattice_vector      0.00000000      0.00000000    100.00000000
atom       1.58120932      0.90763501      3.07250000 Mo
atom      -0.00006069      1.84186972      4.63783976 S
atom      -0.00006069      1.84186972      1.50716024 S
atom       0.01466478      3.68081502      3.07250000 Mo
atom      -1.58526318      4.58750915      4.63786517 S
atom      -1.58526318      4.58750915      1.50713483 S
atom      -1.60364824      6.42401502      3.07250000 Mo
atom      -3.17998499      7.34751194      4.64176101 S
atom      -3.17998499      7.34751194      1.50323899 S
atom      -3.17998627      9.18341354      3.07250000 Mo
atom      -4.76336957     10.10205888      4.64210499 S
atom      -4.76336957     10.10205888      1.50289501 S
atom      -4.76723599     11.93262940      3.07250000 Mo
atom      -6.35721217     12.85055221      4.64175994 S
atom      -6.35721217     12.85055221      1.50324006 S
atom       4.76996950      0.89923699      3.07250000 Mo
atom       3.17466844      1.81452138      4.63133053 S
atom       3.17466844      1.81452138      1.51366947 S
atom       3.22079563      3.66356140      3.07250000 Mo
atom       1.61947682      4.60729150      4.62935821 S
atom       1.61947682      4.60729150      1.51564179 S
atom       1.60286667      6.46595744      3.07250000 Mo
atom      -0.02151807      7.35057380      4.63131404 S
atom      -0.02151807      7.35057380      1.51368596 S
atom      -0.01654809      9.18980812      3.07250000 Mo
atom      -1.59664343     10.10205715      4.64214047 S
atom      -1.59664343     10.10205715      1.50285953 S
atom      -1.59273390     11.93257805      3.07250000 Mo
atom      -3.17998290     12.84450498      4.64212488 S
atom      -3.17998290     12.84450498      1.50287512 S
atom       7.95882470      0.90765497      3.07250000 Mo
atom       6.36531781      1.81450675      4.63131055 S
atom       6.36531781      1.81450675      1.51368945 S
atom       6.31922409      3.66358086      3.07250000 Mo
atom       4.76999825      4.51715528      4.65107729 S
atom       4.76999825      4.51715528      1.49392271 S
atom       3.11667364      7.38088024      4.65107912 S
atom       3.11667364      7.38088024      1.49392088 S
atom       3.15206397      9.14934941      3.07250000 Mo
atom       1.57377199     10.11376714      4.63131942 S
atom       1.57377199     10.11376714      1.51368058 S
atom       1.58512218     11.94720802      3.07250000 Mo
atom      -0.00281993     12.85058665      4.64176307 S
atom      -0.00281993     12.85058665      1.50323693 S
atom      11.13253250      0.91984993      3.07250000 Mo
atom       9.54007420      1.84187395      4.63786839 S
atom       9.54007420      1.84187395      1.50713161 S
atom       9.52531981      3.68078503      3.07250000 Mo
atom       7.92054614      4.60731995      4.62935867 S
atom       7.92054614      4.60731995      1.51564133 S
atom       7.93710578      6.46597607      3.07250000 Mo
atom       6.42332436      7.38087854      4.65110082 S
atom       6.42332436      7.38087854      1.49389918 S
atom       6.38794580      9.14931994      3.07250000 Mo
atom       4.77001250     10.06428432      4.62936235 S
atom       4.77001250     10.06428432      1.51563765 S
atom       4.76999198     11.91730263      3.07250000 Mo
atom       3.18480428     12.84952469      4.63785510 S
atom       3.18480428     12.84952469      1.50714490 S
atom      14.30744437      0.91984261      3.07250000 Mo
atom      12.71999608      1.83636832      4.63959995 S
atom      12.71999608      1.83636832      1.50540005 S
atom      12.72000884      3.66940421      3.07250000 Mo
atom      11.12525165      4.58750406      4.63784256 S
atom      11.12525165      4.58750406      1.50715744 S
atom      11.14369967      6.42402865      3.07250000 Mo
atom       9.56153103      7.35054676      4.63130688 S
atom       9.56153103      7.35054676      1.51369312 S
atom       9.55651689      9.18978571      3.07250000 Mo
atom       7.96621391     10.11376926      4.63132350 S
atom       7.96621391     10.11376926      1.51367650 S
atom       7.95485866     11.94719248      3.07250000 Mo
atom       6.35518748     12.84951809      4.63785621 S
atom       6.35518748     12.84951809      1.50714379 S
