# 
# This is the geometry file that corresponds to the current relaxation step.
# If you do not want this file to be written, set the "write_restart_geometry" flag to .false.
#  aims_uuid : FC2BF4B2-A4B7-47F8-A972-641FE686CEC8                                
# 
  set_vacuum_level       103.343980
lattice_vector     16.35742505      0.00000000      0.00000000
lattice_vector     -8.17073830     14.17072870      0.00000000
lattice_vector      0.00000000      0.00000000    103.34910518
atom      -0.00556232      0.93375833     51.67172856 W
atom       1.62919468      1.82007325     53.37040463 Se
atom       1.63776467      1.89252856     49.99828653 Se
atom      -1.62879885      3.77396276     51.71133218 W
atom       0.00543533      4.70899134     53.41375250 Se
atom       0.04389056      4.76801155     50.09823535 Se
atom      -3.28022318      6.60872465     51.70117505 W
atom      -1.70572843      7.57482520     53.42331342 Se
atom      -1.61468977      7.55757251     50.06454814 Se
atom      -4.90157031      9.44545040     51.67090445 W
atom      -3.29882655     10.40323456     53.37174960 Se
atom      -3.24898635     10.38293043     50.01462460 Se
atom      -6.53389887     12.27808607     51.66064355 W
atom      -4.90687794     13.21787286     53.34627819 Se
atom      -4.89390974     13.21433552     49.99180544 Se
atom       3.27041305      0.92859621     51.66717122 W
atom       4.90091767      1.89906695     53.33280012 Se
atom       4.91356878      1.81562667     49.96258353 Se
atom       1.65583319      3.71969916     51.74159376 W
atom       3.22386152      4.76091303     53.26259143 Se
atom       3.31017878      4.73225915     50.04043144 Se
atom      -0.03054318      6.64992364     51.80111801 W
atom       1.46946024      7.66288513     53.58072943 Se
atom       1.78380628      7.45127205     50.30401033 Se
atom      -1.64625501      9.45209156     51.72949769 W
atom      -0.03963443     10.43770123     53.41077499 Se
atom      -0.00235760     10.36678485     50.05080890 Se
atom      -3.26694669     12.27692746     51.68000012 W
atom      -1.63948957     13.23699602     53.35674934 Se
atom      -1.62512314     13.20518624     50.00142390 Se
atom       6.54636601      0.93357939     51.66538462 W
atom       8.17232727      1.90699651     53.32979645 Se
atom       8.18031695      1.86586248     49.97926241 Se
atom       4.87833449      3.72188757     51.58318782 W
atom       6.49103465      4.77298354     53.23006302 Se
atom       6.53764717      4.71378697     49.92077362 Se
atom       4.77833583      7.46948623     53.04977499 Se
atom       5.08116370      7.66630490     49.77134325 Se
atom       1.57779332      9.42900518     51.77646066 W
atom       3.32117830     10.33677578     53.32970533 Se
atom       3.23311235     10.33025696     50.02530940 Se
atom      -0.00031506     12.28497571     51.69212372 W
atom       1.65165013     13.21926773     53.35305456 Se
atom       1.63979998     13.20423474     50.00323174 Se
atom       9.81000763      0.93436246     51.66891569 W
atom      11.44526099      1.88245888     53.34147781 Se
atom      11.45163112      1.88193874     49.99877766 Se
atom       8.16919530      3.77613787     51.62464428 W
atom       9.78806083      4.72207476     53.31977319 Se
atom       9.83280585      4.71325414     49.97174544 Se
atom       6.58172340      6.65933594     51.53192038 W
atom       8.16386037      7.55844704     53.27724236 Se
atom       8.26320014      7.58106285     49.91747133 Se
atom       4.98033298      9.43851870     51.58137017 W
atom       6.56453180     10.37577401     53.29819423 Se
atom       6.59200408     10.43787276     49.93404055 Se
atom       3.27705658     12.25857161     51.67366683 W
atom       4.91649684     13.20700441     53.33956043 Se
atom       4.90132130     13.21659932     49.99020603 Se
atom      13.08663660      0.93436279     51.67158063 W
atom      14.71846097      1.86548931     53.35914787 Se
atom      14.72334602      1.90335680     50.00818968 Se
atom      11.44963718      3.77510112     51.67026711 W
atom      13.06848881      4.71135148     53.36864536 Se
atom      13.11023213      4.72279723     50.01964497 Se
atom       9.83001417      6.61087454     51.64127494 W
atom      11.42230925      7.55620732     53.35070102 Se
atom      11.48641407      7.55658357     49.99170456 Se
atom       8.20169389      9.45450397     51.61460547 W
atom       9.80568970     10.38513693     53.32763661 Se
atom       9.85426276     10.40335304     49.97035553 Se
atom       6.55622999     12.28634011     51.65127155 W
atom       8.18292889     13.20910194     53.33866044 Se
atom       8.19428746     13.23538073     49.98309010 Se
# 
# What follows is the current estimated Hessian matrix constructed by the BFGS algorithm.
# This is NOT the true Hessian matrix of the system.
# If you do not want this information here, switch it off using the "hessian_to_restart_geometry" keyword.
# 
trust_radius             0.0143029175
hessian_file
