# 
# This is the geometry file that corresponds to the current relaxation step.
# If you do not want this file to be written, set the "write_restart_geometry" flag to .false.
#  aims_uuid : 5D94FFC5-45C2-447F-AE48-6641811C9D19                                
# 
  set_vacuum_level       103.343980
lattice_vector     16.35742505      0.00000000      0.00000000
lattice_vector     -8.17073830     14.17072870      0.00000000
lattice_vector      0.00000000      0.00000000    103.34910518
atom      -0.00539725      0.93026571     51.67600612 W
atom       1.63218986      1.81162985     53.37387612 Se
atom       1.63390304      1.88186775     49.99836366 Se
atom      -1.62617682      3.77811473     51.71877641 W
atom       0.01478966      4.70628585     53.42005986 Se
atom       0.05234629      4.77289246     50.11135778 Se
atom      -3.27828675      6.60967936     51.70346826 W
atom      -1.70757930      7.57699469     53.42768880 Se
atom      -1.60054703      7.55434114     50.07271674 Se
atom      -4.90147210      9.44368149     51.67162880 W
atom      -3.29844648     10.40154113     53.37269382 Se
atom      -3.24741698     10.37876383     50.01532848 Se
atom      -6.53550264     12.27430457     51.66147776 W
atom      -4.90645048     13.21208501     53.34629363 Se
atom      -4.89417122     13.20701866     49.99152956 Se
atom       3.27044932      0.92119901     51.66526092 W
atom       4.90361154      1.89175769     53.32868388 Se
atom       4.91200114      1.80283672     49.95527136 Se
atom       1.65880412      3.70638609     51.74185276 W
atom       3.23925630      4.74415527     53.25632141 Se
atom       3.29403859      4.69654119     50.02258487 Se
atom      -0.01621800      6.65736520     51.82012617 W
atom       1.47620170      7.66129214     53.58231121 Se
atom       1.80166417      7.46510645     50.30668244 Se
atom      -1.64393513      9.45180020     51.73216357 W
atom      -0.03146370     10.43448694     53.41178781 Se
atom      -0.00243382     10.37074212     50.05040589 Se
atom      -3.26570091     12.27324329     51.67963243 W
atom      -1.63812434     13.23599885     53.35590946 Se
atom      -1.62331101     13.20022461     49.99974646 Se
atom       6.54609582      0.92981620     51.66085760 W
atom       8.16865607      1.91328311     53.32333318 Se
atom       8.18049313      1.86686443     49.97392096 Se
atom       4.87495589      3.70829813     51.57350451 W
atom       6.48108602      4.77592687     53.21252906 Se
atom       6.53131648      4.71112482     49.91111279 Se
atom       4.76246648      7.48634493     53.05329656 Se
atom       5.06856711      7.65997522     49.78040550 Se
atom       1.58618143      9.44085337     51.76627644 W
atom       3.31647937     10.35109830     53.33724137 Se
atom       3.23690152     10.34257905     50.02417527 Se
atom       0.00188881     12.28511091     51.69301510 W
atom       1.65028504     13.22771726     53.35392869 Se
atom       1.63965565     13.20911567     50.00373769 Se
atom       9.80958541      0.93947965     51.66707376 W
atom      11.44347571      1.88639473     53.34194446 Se
atom      11.45415233      1.88567659     49.99881806 Se
atom       8.16775759      3.77975505     51.61606371 W
atom       9.78264231      4.72332484     53.31571836 Se
atom       9.83450976      4.71724748     49.96795815 Se
atom       6.56899087      6.66720473     51.51252715 W
atom       8.14968855      7.55457471     53.27124234 Se
atom       8.26578108      7.58356702     49.91323257 Se
atom       4.97225226      9.45102008     51.59904530 W
atom       6.56710509     10.38156614     53.30257542 Se
atom       6.58173936     10.43244484     49.93578194 Se
atom       3.27704429     12.26715330     51.67534026 W
atom       4.91735096     13.21284504     53.34134355 Se
atom       4.90179625     13.22391152     49.99099452 Se
atom      13.08762541      0.93906839     51.67398350 W
atom      14.71927564      1.86774512     53.36376990 Se
atom      14.72660036      1.90962587     50.01375217 Se
atom      11.44980610      3.77847936     51.67011845 W
atom      13.06793706      4.71462884     53.37212558 Se
atom      13.11538152      4.72419919     50.02348672 Se
atom       9.82811622      6.61126604     51.63932285 W
atom      11.42019662      7.55575441     53.35003942 Se
atom      11.48900703      7.55624893     49.99298313 Se
atom       8.19826553      9.45387597     51.61389722 W
atom       9.80417565     10.38155858     53.32779830 Se
atom       9.85248148     10.40125429     49.97100490 Se
atom       6.55368885     12.28637812     51.65125576 W
atom       8.18175757     13.20541308     53.34109708 Se
atom       8.19193153     13.23267319     49.98468452 Se
# 
# What follows is the current estimated Hessian matrix constructed by the BFGS algorithm.
# This is NOT the true Hessian matrix of the system.
# If you do not want this information here, switch it off using the "hessian_to_restart_geometry" keyword.
# 
trust_radius             0.0071514587
hessian_file
