# 
# This is the geometry file that corresponds to the current relaxation step.
# If you do not want this file to be written, set the "write_restart_geometry" flag to .false.
#  aims_uuid : 037C419A-1A50-4006-A4EE-F0B3225AC43D                                
# 
  set_vacuum_level        52.665000
lattice_vector      3.25120188     -0.00038113     -0.00757638
lattice_vector     -1.62570115      2.81541248     -0.00600044
lattice_vector      0.00004322      0.00002895     99.93938747
atom      -0.00007143      0.93846029      2.66013913 Mo
atom       1.62943289      1.88234545      4.30654149 Se
atom       1.62167684      1.87085197      0.99958267 Se
# 
# What follows is the current estimated Hessian matrix constructed by the BFGS algorithm.
# This is NOT the true Hessian matrix of the system.
# If you do not want this information here, switch it off using the "hessian_to_restart_geometry" keyword.
# 
trust_radius             0.0004100644
hessian_file
