#
# temporary structure-file for finite-difference calculation of forces
# displacement  -0.0025 of \# atom    12 direction     0
#
lattice_vector   15.83905019   -0.00000000    0.00000000
lattice_vector   -7.92011750   13.71653974    0.00000000
lattice_vector   -0.00000000   -0.00000000   99.87375975
atom    0.02009411    0.93952889    2.58630681   W
atom    1.62663699    1.92499418    4.27960513  Se
atom    1.60494442    1.89190176    0.84152452  Se
atom   -1.55837324    3.67256207    2.58941565   W
atom    0.05511399    4.60624858    4.30760279  Se
atom   -0.00105267    4.61167135    0.83938429  Se
atom   -3.18001798    6.41134741    2.60617349   W
atom   -1.60233543    7.32947992    4.34558378  Se
atom   -1.62220899    7.33579758    0.85462470  Se
atom   -4.77530355    9.14940350    2.60678705   W
atom   -3.19022302   10.07927664    4.32995359  Se
atom   -3.19388619   10.06653879    0.86933012  Se
atom   -6.35189138   11.89599348    2.59751408   W
atom   -4.76437654   12.84004805    4.31478388  Se
atom   -4.76985491   12.81708475    0.85535286  Se
atom    3.18405322    0.95524791    2.56396632   W
atom    4.75510781    1.85027669    4.32094243  Se
atom    4.75906838    1.86187600    0.81223172  Se
atom    1.63659063    3.77203508    2.53405394   W
atom    3.30040765    4.87599583    4.11921771  Se
atom    3.23932551    4.65937627    0.74767849  Se
atom   -0.02868471    6.43471681    2.58328341   W
atom    1.58895957    7.32203331    4.30984662  Se
atom    1.59403128    7.29231797    0.91786000  Se
atom   -1.60426128    9.15501080    2.60196111   W
atom   -0.03876994   10.08321120    4.34884569  Se
atom   -0.01841397   10.06132008    0.86018633  Se
atom   -3.18420856   11.90588622    2.59040278   W
atom   -1.59831723   12.82130264    4.32098386  Se
atom   -1.59328418   12.81054687    0.85441309  Se
atom    6.33321304    0.93142537    2.58087120   W
atom    7.93527804    1.80287126    4.32643769  Se
atom    7.94730229    1.81204074    0.85152312  Se
atom    4.82548677    3.66151520    2.57518241   W
atom    6.38247802    4.52001609    4.34691408  Se
atom    6.40680731    4.55591612    0.84391046  Se
atom    4.70960145    7.20681966    4.43753697  Se
atom    4.56720206    7.04963320    1.06764909  Se
atom    1.54143973    9.14727346    2.62719515   W
atom    3.13753653   10.03790549    4.36147008  Se
atom    3.16182104    9.98915671    0.89416813  Se
atom   -0.01543817   11.89180811    2.59360974   W
atom    1.58156298   12.78781510    4.33308178  Se
atom    1.59422838   12.77694159    0.86414763  Se
atom    9.52167961    0.89518224    2.59359540   W
atom   11.10427001    1.81435549    4.33358169  Se
atom   11.10727565    1.81956294    0.86362054  Se
atom    7.96245493    3.63252167    2.59699943   W
atom    9.52964208    4.55563339    4.34416722  Se
atom    9.53510964    4.57022402    0.86900313  Se
atom    6.37339727    6.33634578    2.61412486   W
atom    7.89415269    7.29191598    4.38154976  Se
atom    7.90841460    7.30238872    0.87061423  Se
atom    4.68162433    9.04013143    2.66130726   W
atom    6.29377055   10.00845076    4.35292855  Se
atom    6.27416603    9.97385015    0.91408817  Se
atom    3.16723852   11.85541154    2.60970779   W
atom    4.75278697   12.78688688    4.33713926  Se
atom    4.75274561   12.77473733    0.87523314  Se
atom   12.68685899    0.90403202    2.59843772   W
atom   14.27863430    1.83780431    4.32407939  Se
atom   14.26701370    1.83459332    0.86183266  Se
atom   11.11195063    3.64990677    2.60371112   W
atom   12.69582300    4.57291939    4.33703507  Se
atom   12.68184754    4.58008494    0.86775072  Se
atom    9.48812493    6.39389108    2.61424399   W
atom   11.07280219    7.31847444    4.34533946  Se
atom   11.06627563    7.31728447    0.87842133  Se
atom    7.89341624    9.10926873    2.62953549   W
atom    9.48056831   10.06678520    4.34195865  Se
atom    9.46659867   10.05035742    0.88268452  Se
atom    6.32415911   11.85691636    2.60890878   W
atom    7.91517918   12.81795253    4.32766552  Se
atom    7.90283924   12.79705622    0.87178901  Se
