&CONTROL
calculation = "scf"
pseudo_dir = "" ! insert pseudopotential directory
prefix = "unfold"
disk_io = "low"
/

&SYSTEM
ibrav = 0
nat = 73
ntyp = 2
ecutwfc = 30
!noncolin = .true.
!lspinorb = .true.
/

&ELECTRONS
/

ATOMIC_SPECIES
Se 1. ! add Se pseudo name
Mo 1. ! add Mo pseudo name

CELL_PARAMETERS angstrom
16.60000000	0.00000000	0.00000000
-8.30000000	14.37602170	0.00000000
0.00000000	0.00000000	100.00000000

ATOMIC_POSITIONS angstrom
Mo	0.01900551	0.98697170	2.68614149
Se	1.72645163	2.05862033	4.26867985
Se	1.64571439	1.92856703	0.95288134
Mo	-1.58038732	3.87952877	2.70157516
Se	0.29187024	4.96048914	4.26544775
Se	0.01470303	4.80045726	0.92388997
Mo	-3.28567486	6.71099910	2.68614366
Se	-1.50383130	7.65386181	4.26868780
Se	-1.65685528	7.64892811	0.95287853
Mo	-4.98271442	9.57579581	2.68554759
Se	-3.28477249	10.52374947	4.31672181
Se	-3.33265736	10.53923991	1.00561077
Mo	-6.64848432	12.46089929	2.68553790
Se	-4.97858042	13.45739899	4.31673838
Se	-4.98907952	13.40816398	1.00561554
Mo	3.32150004	0.99754778	2.62575374
Se	4.92171793	1.99700310	4.29899126
Se	5.00791322	1.92778665	0.96890157
Mo	1.76542911	3.91819119	2.52266700
Se	3.35899281	4.80195385	0.81552022
Mo	0.12606272	6.75779109	2.52266383
Se	1.68809372	7.69610399	0.81548721
Mo	-1.62526274	9.56571821	2.62574726
Se	0.04041296	10.45189654	4.29895873
Se	0.02348777	10.56112796	0.96885021
Mo	-3.31686472	12.46099637	2.67235989
Se	-1.66729213	13.41341256	4.34769101
Se	-1.64885496	13.42405825	1.02133996
Mo	6.63387894	0.96926968	2.68669364
Se	8.27740204	1.91848921	4.37814322
Se	8.31840570	1.92022157	1.05042405
Mo	4.89476467	3.86389970	2.58029108
Se	6.50679026	4.78038118	4.31676947
Se	6.63714194	4.76652871	0.99387786
Mo	3.21106609	6.64599068	2.48290626
Se	4.73080366	7.52339063	4.26055225
Se	4.92894928	7.63779166	0.94075255
Mo	1.64369350	9.49518999	2.58021721
Se	3.24335510	10.43297322	4.31674075
Se	3.29652814	10.55277625	0.99378339
Mo	0.00637986	12.44852210	2.68668258
Se	1.65017259	13.39728151	4.37813519
Se	1.67215825	13.43189748	1.05040816
Mo	9.96504298	0.96135227	2.73021250
Se	11.63106862	1.92320528	4.40455750
Se	11.63544148	1.92573627	1.07793179
Mo	8.28032146	3.83288889	2.71050760
Se	9.94238264	4.79606547	4.38766426
Se	9.97044501	4.78179657	1.06520904
Mo	6.55466408	6.67306587	2.65706159
Se	8.22128121	7.63510741	4.34740271
Se	8.27547216	7.64591313	1.04187321
Mo	4.90634972	9.52804097	2.65703515
Se	6.57284147	10.49030799	4.34738892
Se	6.60927959	10.53181040	1.04187552
Mo	3.30951210	12.44259747	2.71045874
Se	4.97469570	13.40035452	4.38762148
Se	4.97638353	13.43177131	1.06518422
Mo	13.29691553	0.97124109	2.73923999
Se	14.99688893	1.96267535	4.37606853
Se	14.94182028	1.94347686	1.06050964
Mo	11.63960395	3.84185896	2.73925254
Se	13.34821688	4.81831598	4.37606305
Se	13.30404711	4.78022906	1.06052186
Mo	9.94534524	6.70222846	2.71546269
Se	11.64217156	7.66697151	4.35754532
Se	11.61161537	7.64816133	1.03936441
Mo	8.26635086	9.56460282	2.70111068
Se	9.94847456	10.53572063	4.34838403
Se	9.93467749	10.52775114	1.03375706
Mo	6.62697027	12.44979865	2.71544038
Se	8.31087137	13.43689025	4.35752849
Se	8.27931563	13.41981540	1.03936000

K_POINTS automatic
4 4 1 0 0 0