# 
# This is the geometry file that corresponds to the current relaxation step.
# If you do not want this file to be written, set the "write_restart_geometry" flag to .false.
#  aims_uuid : A86F0DBE-A9B9-4D9F-ADFF-24505DB8820E                                
# 
  set_vacuum_level         0.923995
lattice_vector     15.72118630     -0.00130770      0.00000000
lattice_vector     -7.86163315     13.61413775      0.00000000
lattice_vector      0.00000000      0.00000000    103.10805205
atom       7.07349167     13.15931178     51.54905467 Mo
atom       0.78509096      0.45428169     53.10394320 S
atom       0.78637100      0.45351316     49.99555073 S
atom      13.36296264      2.26776505     51.54902267 Mo
atom      -0.78628698      3.17544948     53.10394771 S
atom      -0.78628503      3.17693056     49.99550370 S
atom      11.79225745      4.99417739     51.54760592 Mo
atom      -2.35832611      5.89827626     53.10562526 S
atom      -2.35516219      5.90164526     49.99659765 S
atom      10.21539593      7.71191232     51.54660191 Mo
atom      -3.93529670      8.61968012     53.10478807 S
atom      -3.92856315      8.62358898     49.99904344 S
atom       8.64976691     10.43607310     51.54767029 Mo
atom      -5.50406683     11.34581931     53.10568267 S
atom      -5.49960195     11.34686285     49.99662104 S
atom      -5.50378456     13.16036803     51.55104435 Mo
atom       3.92918194      0.45377165     53.10564088 S
atom       3.93049240      0.44933079     49.99660041 S
atom       0.78569306      2.26881618     51.54902456 Mo
atom       2.35845859      3.17656271     53.10152955 S
atom       2.35793567      3.17626399     49.99534967 S
atom      -0.78646889      4.99132526     51.55101824 Mo
atom       0.78533780      5.89802218     53.10562801 S
atom       0.78217907      5.90139112     49.99659934 S
atom      -2.35794851      7.71435990     51.55333521 Mo
atom      -0.78670721      8.62137784     53.10901167 S
atom      -0.78670549      8.62326817     50.00011549 S
atom      -3.93087741     10.43820100     51.55335436 Mo
atom      -2.35951313     11.34504957     53.10900729 S
atom      -2.35789259     11.34409335     50.00013210 S
atom      -2.35981816     13.15928822     51.55333324 Mo
atom       7.07451236      0.45822969     53.10476066 S
atom       7.07451001      0.45041157     49.99902259 S
atom       3.93226424      2.26532738     51.54760441 Mo
atom       5.49906555      3.17946642     53.10028178 S
atom       5.49957504      3.16089458     49.98265697 S
atom       2.35597888      4.99495941     51.54761077 Mo
atom       3.93127906      5.89439911     53.10028432 S
atom       3.91544514      5.90417022     49.98268465 S
atom       0.78457846      7.71410689     51.55333700 Mo
atom       2.36188665      8.61915754     53.10479101 S
atom       2.35515740      8.62306112     49.99904294 S
atom      -0.78688761     10.43710719     51.55537060 Mo
atom       0.78569150     11.34479340     53.10900974 S
atom       0.78407019     11.34383476     50.00012632 S
atom       0.78561794     13.15902841     51.55333026 Mo
atom      10.21985011      0.45324644     53.10563349 S
atom      10.21853809      0.44880612     49.99659955 S
atom       7.07432556      2.27150928     51.54655776 Mo
atom       8.64954933      3.17918747     53.10027230 S
atom       8.64904496      3.16061764     49.98265074 S
atom       5.47613942      4.97626471     51.53205338 Mo
atom       7.07411023      5.89847133     53.04448470 S
atom       7.07415176      5.89822654     54.97339093 S
atom       7.07410383      5.89856198     50.00528890 S
atom       3.93242247      7.71243566     51.54660571 Mo
atom       5.50632782      8.62235821     53.10033898 S
atom       5.48999720      8.63122661     49.98272880 S
atom       2.35708560     10.43767494     51.55335307 Mo
atom       3.93023862     11.34503436     53.10567781 S
atom       3.92577615     11.34607204     49.99662188 S
atom       3.92959318     13.15958101     51.55104018 Mo
atom      13.36393807      0.45323615     53.10394661 S
atom      13.36266151      0.45246731     49.99554278 S
atom      10.21639985      2.26480208     51.54760143 Mo
atom      11.79016022      3.17578040     53.10152587 S
atom      11.79068622      3.17547966     49.99534522 S
atom       8.67210783      4.97598362     51.53204143 Mo
atom      10.21691899      5.89387900     53.10027538 S
atom      10.23275512      5.90364235     49.98267680 S
atom       7.07389910      7.74353114     51.53211752 Mo
atom       8.64144233      8.62208575     53.10033950 S
atom       8.65777176      8.63095636     49.98272729 S
atom       5.49764266     10.43634701     51.54767201 Mo
atom       7.07368665     11.34339557     53.10158087 S
atom       7.07368655     11.34396889     49.99541411 S
# 
# What follows is the current estimated Hessian matrix constructed by the BFGS algorithm.
# This is NOT the true Hessian matrix of the system.
# If you do not want this information here, switch it off using the "hessian_to_restart_geometry" keyword.
# 
trust_radius             0.0003540758
hessian_file
