# 
# This is the geometry file that corresponds to the current relaxation step.
# If you do not want this file to be written, set the "write_restart_geometry" flag to .false.
#  aims_uuid : D7AE3C41-A406-494A-A524-4588188F09D9                                
# 
  set_vacuum_level        99.650342
lattice_vector     15.91310588      0.00000000      0.00000000
lattice_vector     -7.81641383     13.67442367      0.00000000
lattice_vector      0.00000000      0.00000000    100.00000000
atom_frac       0.53359192      0.56681854      0.49650342 Mo
atom_frac       0.66663592      0.63330666      0.51213843 S
atom_frac       0.66663592      0.63330666      0.48086841 S
atom_frac       0.53359241      0.76681924      0.49650341 Mo
atom_frac       0.66663615      0.83330679      0.51213845 S
atom_frac       0.66663623      0.83330686      0.48086839 S
atom_frac       0.53359265      0.96681898      0.49650342 Mo
atom_frac       0.66663619      0.03330702      0.51213844 S
atom_frac       0.66663623      0.03330697      0.48086839 S
atom_frac       0.53359257      0.16681821      0.49650341 Mo
atom_frac       0.66663610      0.23330728      0.51213842 S
atom_frac       0.66663611      0.23330729      0.48086840 S
atom_frac       0.53359248      0.36681839      0.49650341 Mo
atom_frac       0.66663584      0.43330687      0.51213846 S
atom_frac       0.66663585      0.43330691      0.48086837 S
atom_frac       0.73359268      0.56681839      0.49650342 Mo
atom_frac       0.86663609      0.63330730      0.51213844 S
atom_frac       0.86663612      0.63330738      0.48086841 S
atom_frac       0.73359202      0.76681794      0.49650342 Mo
atom_frac       0.86663567      0.83330689      0.51213846 S
atom_frac       0.86663572      0.83330690      0.48086839 S
atom_frac       0.73359209      0.96681836      0.49650343 Mo
atom_frac       0.86663596      0.03330666      0.51213843 S
atom_frac       0.86663596      0.03330667      0.48086843 S
atom_frac       0.73359222      0.16681889      0.49650341 Mo
atom_frac       0.86663611      0.23330680      0.51213844 S
atom_frac       0.86663618      0.23330679      0.48086840 S
atom_frac       0.73359272      0.36681946      0.49650341 Mo
atom_frac       0.86663633      0.43330705      0.51213843 S
atom_frac       0.86663637      0.43330707      0.48086840 S
atom_frac       0.93359225      0.56681908      0.49650342 Mo
atom_frac       0.06663633      0.63330703      0.51213839 S
atom_frac       0.06663634      0.63330699      0.48086845 S
atom_frac       0.93359290      0.76681959      0.49650343 Mo
atom_frac       0.06663620      0.83330696      0.51213848 S
atom_frac       0.06663611      0.83330694      0.48086836 S
atom_frac       0.93359285      0.96681834      0.49650342 Mo
atom_frac       0.06663615      0.03330726      0.51213846 S
atom_frac       0.06663612      0.03330725      0.48086838 S
atom_frac       0.93359221      0.16681829      0.49650343 Mo
atom_frac       0.06663590      0.23330685      0.51213845 S
atom_frac       0.06663587      0.23330686      0.48086840 S
atom_frac       0.93359198      0.36681820      0.49650342 Mo
atom_frac       0.06663584      0.43330667      0.51213844 S
atom_frac       0.06663589      0.43330668      0.48086841 S
atom_frac       0.13359229      0.56681784      0.49650343 Mo
atom_frac       0.26663598      0.63330718      0.51213842 S
atom_frac       0.26663589      0.63330712      0.48086841 S
atom_frac       0.13359242      0.76681920      0.49650341 Mo
atom_frac       0.26663586      0.83330647      0.51213848 S
atom_frac       0.26663582      0.83330645      0.48086835 S
atom_frac       0.13359206      0.96681880      0.49650342 Mo
atom_frac       0.26663622      0.03330675      0.51213843 S
atom_frac       0.26663617      0.03330676      0.48086840 S
atom_frac       0.13359288      0.16681920      0.49650342 Mo
atom_frac       0.26663635      0.23330715      0.51213844 S
atom_frac       0.26663633      0.23330718      0.48086840 S
atom_frac       0.13359248      0.36681840      0.49650343 Mo
atom_frac       0.26663603      0.43330722      0.51213845 S
atom_frac       0.26663597      0.43330713      0.48086840 S
atom_frac       0.33359271      0.56681916      0.49650341 Mo
atom_frac       0.46663628      0.63330721      0.51213844 S
atom_frac       0.46663630      0.63330718      0.48086839 S
atom_frac       0.33359306      0.76681917      0.49650341 Mo
atom_frac       0.46663607      0.83330711      0.51213847 S
atom_frac       0.46663609      0.83330713      0.48086836 S
atom_frac       0.33359178      0.96681747      0.49650341 Mo
atom_frac       0.46663567      0.03330683      0.51213844 S
atom_frac       0.46663569      0.03330682      0.48086839 S
atom_frac       0.33359193      0.16681822      0.49650342 Mo
atom_frac       0.46663599      0.23330687      0.51213840 S
atom_frac       0.46663597      0.23330687      0.48086843 S
atom_frac       0.33359243      0.36681916      0.49650343 Mo
atom_frac       0.46663617      0.43330676      0.51213843 S
atom_frac       0.46663612      0.43330677      0.48086841 S
# 
# What follows is the current estimated Hessian matrix constructed by the BFGS algorithm.
# This is NOT the true Hessian matrix of the system.
# If you do not want this information here, switch it off using the "hessian_to_restart_geometry" keyword.
# 
trust_radius             0.0005554068
hessian_file
