&CONTROL
calculation = "scf"
pseudo_dir = "" ! insert pseudopotential directory
prefix = "unfold"
disk_io = "low"
/

&SYSTEM
ibrav = 0
nat = 74
ntyp = 2
ecutwfc = 30
noncolin = .true.
lspinorb = .true.
/

&ELECTRONS
/

ATOMIC_SPECIES
S 1. ! add S pseudo name
W 1. ! add W pseudo name

CELL_PARAMETERS angstrom
15.90000000	0.00000000	0.00000000
-7.95000000	13.76980392	0.00000000
0.00000000	0.00000000	100.00000000

ATOMIC_POSITIONS angstrom
W	0.00004233	0.92614010	2.60880708
S	1.59001256	1.87171251	4.16225498
S	1.59001891	1.83586203	1.03000800
W	-1.58000936	3.68845484	2.60873507
S	0.04843426	4.67164745	4.13664484
S	-0.01431268	4.60733467	0.99774261
W	-3.16066056	6.42627957	2.60872881
S	-1.49498140	7.34499004	4.13665321
S	-1.58206733	7.32280333	0.99772216
W	-4.76293848	9.17585572	2.60880851
S	-3.14902632	10.07996675	4.16226961
S	-3.18007258	10.09789478	1.02997913
W	-6.36001036	11.93382767	2.60878171
S	-4.76757278	12.85320020	4.17658004
S	-4.76672267	12.85370621	1.04151605
W	3.17997737	0.92611859	2.60882116
S	4.75765324	1.85159138	4.18521347
S	4.77651878	1.84136026	1.04723959
W	1.58998287	3.70494391	2.56985876
S	3.13156544	4.67161279	4.13666338
S	3.19431440	4.60730877	0.99773730
W	0.06570989	6.46388055	2.52218870
S	1.59000766	7.34389733	0.90508860
W	-1.56139281	9.16338292	2.56984335
S	0.04656723	10.01506278	4.13663779
S	0.02223941	10.10157110	0.99768177
W	-3.17294935	11.92969883	2.60880379
S	-1.58263879	12.83332923	4.18518479
S	-1.58208158	12.85478830	1.04723730
W	6.35848466	0.91712258	2.62549732
S	7.94566044	1.83347190	4.20053070
S	7.95194377	1.83711079	1.06163779
W	4.76002239	3.68848254	2.60875127
S	6.34213312	4.60024576	4.18944878
S	6.36431034	4.58743585	1.04986165
W	3.11428510	6.46381837	2.52220226
S	4.67500289	7.34497394	4.13665317
S	4.76206531	7.32275703	0.99772592
W	1.58996725	9.10405184	2.52214535
S	3.13341175	10.01506595	4.13662304
S	3.15777836	10.10156640	0.99769690
W	0.00933532	11.91691928	2.60871284
S	1.58999517	12.83121141	4.18942254
S	1.58999770	12.85681608	1.04983385
W	9.53999341	0.91423138	2.63070280
S	11.13435775	1.83345337	4.20053102
S	11.12806529	1.83708810	1.06162945
W	7.94676140	3.67386341	2.63071918
S	9.54002742	4.59495507	4.20054066
S	9.54002118	4.58768866	1.06163703
W	6.34070401	6.42629944	2.60874613
S	7.93032412	7.34678031	4.18521116
S	7.94861200	7.33555645	1.04723706
W	4.74136851	9.16335974	2.56983773
S	6.32899783	10.07998366	4.16224115
S	6.36006137	10.09790001	1.02999582
W	3.17064437	11.91692440	2.60871687
S	4.76261384	12.83331625	4.18519208
S	4.76205541	12.85477867	1.04722199
W	12.72150914	0.91711280	2.62549017
S	14.32232179	1.85157166	4.18520425
S	14.30346146	1.84133694	1.04722872
W	11.13328950	3.67381287	2.63070982
S	12.73787338	4.60024795	4.18943840
S	12.71569577	4.58743608	1.04985460
W	9.54000545	6.42765671	2.62549983
S	11.14972353	7.34678087	4.18519381
S	11.13141879	7.33555486	1.04724450
W	7.94288037	9.17584065	2.60880964
S	9.53998830	10.09505611	4.17658658
S	9.53998406	10.09406826	1.04150694
W	6.35295998	11.92973978	2.60880564
S	7.94756887	12.85321407	4.17659324
S	7.94671080	12.85370733	1.04149883

K_POINTS automatic
4 4 1 0 0 0