lattice_vector     15.90000000      0.00000000      0.00000000
lattice_vector     -7.95000000     13.76980390      0.00000000
lattice_vector      0.00000000      0.00000000    100.00000000
atom       1.58939428      0.91770622      3.07863823 Mo
atom      -0.00139656      1.83627283      4.63717380 S
atom       0.00039120      1.83228139      1.51529589 S
atom       0.00170589      3.66869505      3.07293438 Mo
atom      -1.59022062      4.59019026      4.63291525 S
atom      -1.58988938      4.59037579      1.51403790 S
atom      -1.59230562      6.42961731      3.07292507 Mo
atom      -3.18077741      7.34311914      4.63715156 S
atom      -3.18332324      7.34666821      1.51528488 S
atom      -3.18090175      9.18011202      3.07862817 Mo
atom      -4.76999472     10.09779415      4.64066596 S
atom      -4.76999894     10.09956376      1.51898278 S
atom      -4.77001079     11.93423333      3.08057042 Mo
atom      -6.36038774     12.85243832      4.64067010 S
atom      -6.35886942     12.85155228      1.51899669 S
atom       4.77057386      0.91769956      3.07862852 Mo
atom       3.18000881      1.84087018      4.63677142 S
atom       3.18000176      1.83383183      1.51813094 S
atom       3.17998226      3.67521218      3.07263208 Mo
atom       1.58600110      4.59305406      4.63235265 S
atom       1.58738795      4.57488270      1.50183627 S
atom       1.56153590      6.40988448      3.05792059 Mo
atom       0.00037086      7.33944317      4.63234507 S
atom      -0.01466621      7.34974961      1.50183144 S
atom       0.00248718      9.17882892      3.07263925 Mo
atom      -1.58609101     10.09599418      4.63676675 S
atom      -1.59216831     10.09950861      1.51813394 S
atom      -1.59030984     11.93508346      3.07863273 Mo
atom      -3.17959676     12.85243868      4.64066575 S
atom      -3.18112705     12.85155050      1.51898336 S
atom       7.95038492      0.91861276      3.07583071 Mo
atom       6.36140900      1.83627053      4.63715539 S
atom       6.35961452      1.83227938      1.51528060 S
atom       6.35826733      3.66869634      3.07291678 Mo
atom       4.77401170      4.59304321      4.63233311 S
atom       4.77261398      4.57488452      1.50183006 S
atom       4.79844338      6.40988378      3.05791388 Mo
atom       3.18000491      7.34423564      4.58042887 S
atom       3.17999370      7.34412916      6.52020239 S_add
atom       3.18000426      7.34427901      1.52965277 S
atom       3.17998564      9.21309191      3.05794935 Mo
atom       1.59437544     10.10033520      4.63236256 S
atom       1.57795646     10.10821542      1.50185090 S
atom       1.58597280     11.93455963      3.07294546 Mo
atom       0.00062404     12.85347264      4.63716677 S
atom      -0.00370980     12.85389716      1.51529238 S
atom      11.12999126      0.91873922      3.07364748 Mo
atom       9.54104125      1.83696658      4.63499404 S
atom       9.53960233      1.83611828      1.51373060 S
atom       9.54030003      3.67217099      3.07362904 Mo
atom       7.95023420      4.59019273      4.63290227 S
atom       7.94990674      4.59038651      1.51402834 S
atom       7.95227903      6.42962795      3.07292178 Mo
atom       6.35964382      7.33944932      4.63234515 S
atom       6.37468003      7.34975504      1.50183063 S
atom       6.35748939      9.17883088      3.07264890 Mo
atom       4.76563600     10.10032474      4.63237899 S
atom       4.78205933     10.10822068      1.50185972 S
atom       4.77400497     11.93455594      3.07295994 Mo
atom       3.18000614     12.85247208      4.63293653 S
atom       3.18001530     12.85208134      1.51405735 S
atom      14.30959077      0.91861451      3.07584805 Mo
atom      12.71896816      1.83696727      4.63500534 S
atom      12.72042109      1.83611845      1.51373859 S
atom      12.71967988      3.67216904      3.07363732 Mo
atom      11.13000642      4.58913339      4.63498834 S
atom      11.13001294      4.59080229      1.51372463 S
atom      11.12998438      6.42585736      3.07582482 Mo
atom       9.54078745      7.34311914      4.63715506 S
atom       9.54333556      7.34667404      1.51528298 S
atom       9.54087296      9.18011056      3.07863318 Mo
atom       7.94610209     10.09598991      4.63678002 S
atom       7.95217935     10.09951229      1.51814335 S
atom       7.95027793     11.93508120      3.07864726 Mo
atom       6.35938576     12.85347092      4.63718492 S
atom       6.36372246     12.85390046      1.51530946 S
