# 
# This is the geometry file that corresponds to the current relaxation step.
# If you do not want this file to be written, set the "write_restart_geometry" flag to .false.
#  aims_uuid : 32C1DA48-4CBE-49BB-AEC1-75BC8D4D1D7E                                
# 
  set_vacuum_level        53.072496
lattice_vector      3.18000000      0.00000000      0.00000000
lattice_vector     -1.59000000      2.75396078      0.00000000
lattice_vector      0.00000000      0.00000000    100.00000000
atom       1.59000312      0.91837974      3.07250004 Mo
atom      -0.00000207      1.83636062      4.63511102 S
atom      -0.00000204      1.83636063      1.50988395 S
