# 
# This is the geometry file that corresponds to the current relaxation step.
# If you do not want this file to be written, set the "write_restart_geometry" flag to .false.
#  aims_uuid : 831BE1CB-1B37-4312-A38D-5EAEFCF96272                                
# 
  set_vacuum_level        53.044136
lattice_vector     15.66599045      0.00000000      0.00000000
lattice_vector     -7.83292280     13.56702030      0.00000000
lattice_vector      0.00000000      0.00000000     99.99930752
atom       1.57852523      0.91458649      3.13799251 Mo
atom       0.00943251      1.81476780      4.68534279 S
atom       0.01104778      1.81567574      1.59726396 S
atom       0.01443623      3.62372655      3.13797536 Mo
atom      -1.58111869      4.52919637      4.66835926 S
atom      -1.55930099      4.51080637      1.58412566 S
atom      -1.57817723      6.32563960      3.11217849 Mo
atom      -3.19266793      7.21429439      4.63053031 S
atom      -3.15171459      7.21759550      1.55777389 S
atom      -3.15994360      9.02961697      3.09656966 Mo
atom      -4.74843938      9.90891212      4.63053488 S
atom      -4.72508085      9.94275399      1.55777907 S
atom      -4.71080613     11.75142143      3.11221399 Mo
atom      -6.26804665     12.64708872      4.66836360 S
atom      -6.27301036     12.67517664      1.58413503 S
atom       4.71121718      0.92893643      3.08774876 Mo
atom       3.17984640      1.84320809      4.65963313 S
atom       3.12914160      1.82928936      1.57906914 S
atom       3.18761774      3.64961275      3.10425781 Mo
atom       1.61935429      4.54616686      4.65959504 S
atom       1.58195930      4.50913549      1.57903889 S
atom       1.59324538      6.32950583      3.08765945 Mo
atom       0.01837417      7.23922856      4.63664548 S
atom      -0.00679681      7.21728500      1.55609877 S
atom      -0.00179044      9.03846640      3.08192234 Mo
atom      -1.57403293      9.94518132      4.62593978 S
atom      -1.58772217      9.93731856      1.54808033 S
atom      -1.57318570     11.76016016      3.08197332 Mo
atom      -3.12130379     12.67720413      4.63670003 S
atom      -3.15287920     12.66641010      1.55617031 S
atom       7.83490501      0.93276257      3.03227300 Mo
atom       6.32707416      1.91959493      4.56173655 S
atom       6.25091417      1.81938113      1.47986717 S
atom       6.33993969      3.67745389      2.95130260 Mo
atom       4.93444231      4.65814064      4.56174847 S
atom       4.70562671      4.52599095      1.46014202 S
atom       4.78791515      6.36567893      2.95124939 Mo
atom       3.25913685      7.23351013      4.56164909 S
atom       3.13429225      7.21763021      1.47977855 S
atom       3.15842954      9.03274578      3.03218962 Mo
atom       1.59269867      9.93607988      4.59936917 S
atom       1.55523812      9.94845808      1.52217140 S
atom       1.56891247     11.75976066      3.07083128 Mo
atom       0.00144751     12.69213951      4.59942663 S
atom      -0.00659215     12.65356242      1.52222574 S
atom      10.96381179      0.91442701      3.09177571 Mo
atom       9.34533575      1.87083085      4.58838496 S
atom       9.42878831      1.82486887      1.49748202 S
atom       9.34429047      3.63846402      3.00534594 Mo
atom       7.86618957      4.53712600      1.39979389 S
atom       7.75896824      6.28894771      2.93054858 Mo
atom       6.29552022      7.25764753      1.39972644 S
atom       6.25633158      8.98707354      3.00527618 Mo
atom       4.72604239      9.87174869      4.58830332 S
atom       4.72797019      9.96703681      1.49740994 S
atom       4.70697655     11.75162426      3.09173724 Mo
atom       3.12391602     12.65751066      4.63037482 S
atom       3.14710948     12.67092893      1.54393179 S
atom      14.10366382      0.90732674      3.13302270 Mo
atom      12.51309561      1.80974670      4.66318109 S
atom      12.55151280      1.81216056      1.57461374 S
atom      12.51740339      3.61502896      3.11491601 Mo
atom      10.85723199      4.51841228      4.60963047 S
atom      10.96470498      4.49712866      1.52191241 S
atom      10.90263310      6.30097533      3.06518494 Mo
atom       9.20856028      7.12582823      4.56452297 S
atom       9.35154902      7.20837742      1.47461844 S
atom       9.34123937      9.00537584      3.06516389 Mo
atom       7.77480917      9.85731569      4.60959230 S
atom       7.81014978      9.96104461      1.52185396 S
atom       7.82252974     11.74675227      3.11489026 Mo
atom       6.25697201     12.64566649      4.66315760 S
atom       6.27828880     12.67773351      1.57458717 S
# 
# What follows is the current estimated Hessian matrix constructed by the BFGS algorithm.
# This is NOT the true Hessian matrix of the system.
# If you do not want this information here, switch it off using the "hessian_to_restart_geometry" keyword.
# 
