# 
# This is the geometry file that corresponds to the current relaxation step.
# If you do not want this file to be written, set the "write_restart_geometry" flag to .false.
#  aims_uuid : 547990A3-1B80-48AF-A037-4DA9A682FDBF                                
# 
lattice_vector     16.60000000      0.00000000      0.00000000
lattice_vector     -8.30000000     14.37602170      0.00000000
lattice_vector      0.00000000      0.00000000    100.00000000
atom       0.00000000      0.95840145      2.66500000 Mo
atom       1.66000000      1.91680289      4.33065295 Se
atom       1.66000000      1.91680289      0.99934705 Se
atom      -1.66000000      3.83360579      2.66500000 Mo
atom      -0.00000000      4.79200723      4.33065295 Se
atom      -0.00000000      4.79200723      0.99934705 Se
atom      -3.32000000      6.70881013      2.66500000 Mo
atom      -1.66000000      7.66721157      4.33065295 Se
atom      -1.66000000      7.66721157      0.99934705 Se
atom      -4.98000000      9.58401447      2.66500000 Mo
atom      -3.32000000     10.54241592      4.33065295 Se
atom      -3.32000000     10.54241592      0.99934705 Se
atom      -6.64000000     12.45921881      2.66500000 Mo
atom      -4.98000000     13.41762026      4.33065295 Se
atom      -4.98000000     13.41762026      0.99934705 Se
atom       3.32000000      0.95840145      2.66500000 Mo
atom       4.98000000      1.91680289      4.33065295 Se
atom       4.98000000      1.91680289      0.99934705 Se
atom       1.66000000      3.83360579      2.66500000 Mo
atom       3.32000000      4.79200723      4.33065295 Se
atom       3.32000000      4.79200723      0.99934705 Se
atom       0.00000000      6.70881013      2.66500000 Mo
atom       1.66000000      7.66721157      4.33065295 Se
atom       1.66000000      7.66721157      0.99934705 Se
atom      -1.66000000      9.58401447      2.66500000 Mo
atom      -0.00000000     10.54241592      4.33065295 Se
atom      -0.00000000     10.54241592      0.99934705 Se
atom      -3.32000000     12.45921881      2.66500000 Mo
atom      -1.66000000     13.41762026      4.33065295 Se
atom      -1.66000000     13.41762026      0.99934705 Se
atom       6.64000000      0.95840145      2.66500000 Mo
atom       8.30000000      1.91680289      4.33065295 Se
atom       8.30000000      1.91680289      0.99934705 Se
atom       4.98000000      3.83360579      2.66500000 Mo
atom       6.64000000      4.79200723      4.33065295 Se
atom       6.64000000      4.79200723      0.99934705 Se
atom       3.32000000      6.70881013      2.66500000 Mo
atom       4.98000000      7.66721157      4.33065295 Se
atom       4.98000000      7.66721157      0.99934705 Se
atom       1.66000000      9.58401447      2.66500000 Mo
atom       3.32000000     10.54241592      4.33065295 Se
atom       3.32000000     10.54241592      0.99934705 Se
atom      -0.00000000     12.45921881      2.66500000 Mo
atom       1.66000000     13.41762026      4.33065295 Se
atom       1.66000000     13.41762026      0.99934705 Se
atom       9.96000000      0.95840145      2.66500000 Mo
atom      11.62000000      1.91680289      4.33065295 Se
atom      11.62000000      1.91680289      0.99934705 Se
atom       8.30000000      3.83360579      2.66500000 Mo
atom       9.96000000      4.79200723      4.33065295 Se
atom       9.96000000      4.79200723      0.99934705 Se
atom       6.64000000      6.70881013      2.66500000 Mo
atom       8.30000000      7.66721157      4.33065295 Se
atom       8.30000000      7.66721157      0.99934705 Se
atom       4.98000000      9.58401447      2.66500000 Mo
atom       6.64000000     10.54241592      4.33065295 Se
atom       6.64000000     10.54241592      0.99934705 Se
atom       3.32000000     12.45921881      2.66500000 Mo
atom       4.98000000     13.41762026      4.33065295 Se
atom       4.98000000     13.41762026      0.99934705 Se
atom      13.28000000      0.95840145      2.66500000 Mo
atom      14.94000000      1.91680289      4.33065295 Se
atom      14.94000000      1.91680289      0.99934705 Se
atom      11.62000000      3.83360579      2.66500000 Mo
atom      13.28000000      4.79200723      4.33065295 Se
atom      13.28000000      4.79200723      0.99934705 Se
atom       9.96000000      6.70881013      2.66500000 Mo
atom      11.62000000      7.66721157      4.33065295 Se
atom      11.62000000      7.66721157      0.99934705 Se
atom       8.30000000      9.58401447      2.66500000 Mo
atom       9.96000000     10.54241592      4.33065295 Se
atom       9.96000000     10.54241592      0.99934705 Se
atom       6.64000000     12.45921881      2.66500000 Mo
atom       8.30000000     13.41762026      4.33065295 Se
atom       8.30000000     13.41762026      0.99934705 Se
# 
# What follows is the current estimated Hessian matrix constructed by the BFGS algorithm.
# This is NOT the true Hessian matrix of the system.
# If you do not want this information here, switch it off using the "hessian_to_restart_geometry" keyword.
# 
trust_radius             0.0086517796
hessian_file
