# 
# This is the geometry file that corresponds to the current relaxation step.
# If you do not want this file to be written, set the "write_restart_geometry" flag to .false.
#  aims_uuid : C4DF4E21-4487-47AD-A04B-2668A9DCB1F2                                
# 
  set_vacuum_level        52.992975
lattice_vector     16.44347560      0.00000000      0.00000000
lattice_vector     -8.22357185     14.23911350      0.00000000
lattice_vector      0.00000000      0.00000000     99.63748923
atom       0.04296246      1.01243624      2.70594878 W
atom       1.68108310      1.90372350      4.43031759 Se
atom       1.70280253      2.01040881      1.05291737 Se
atom      -1.57988624      3.87898430      2.74175024 W
atom       0.04796987      4.82347036      4.46819653 Se
atom       0.11857899      4.86771561      1.12637343 Se
atom      -3.26059666      6.72138998      2.70854586 W
atom      -1.68121612      7.69917031      4.43845928 Se
atom      -1.57830660      7.66505701      1.05365280 Se
atom      -4.89832766      9.56569224      2.68218913 W
atom      -3.27729730     10.52372068      4.39095890 Se
atom      -3.24297452     10.51635265      1.00951915 Se
atom      -6.53865975     12.41044011      2.68142789 W
atom      -4.90002288     13.34274891      4.38850518 Se
atom      -4.88904835     13.37144355      1.00831818 Se
atom       3.33629991      1.01254445      2.71917932 W
atom       4.98957541      1.95639134      4.40453254 Se
atom       4.97634145      1.93896811      1.01035588 Se
atom       1.73395957      3.85021516      2.82146923 W
atom       3.34280234      4.72894132      4.48256221 Se
atom       3.39081237      4.96613904      1.20622072 Se
atom       0.02236995      6.77133668      2.82394950 W
atom       1.57136944      7.74753519      4.51105050 Se
atom       1.79494344      7.62892989      1.21507387 Se
atom      -1.61989268      9.57674006      2.72392782 W
atom       0.01834895     10.54574514      4.40958838 Se
atom       0.00725030     10.52626751      1.01638818 Se
atom      -3.25104565     12.41473191      2.69675506 W
atom      -1.60636598     13.36460929      4.38967204 Se
atom      -1.60790181     13.36187811      1.00384242 Se
atom       6.62918797      1.01407905      2.69702383 W
atom       8.27403426      1.98075966      4.37338606 Se
atom       8.26840764      1.95747680      0.99573473 Se
atom       4.98799399      3.82902490      2.68846212 W
atom       6.60952012      4.85539275      4.33171425 Se
atom       6.61218200      4.79251417      0.95778762 Se
atom       4.76884470      7.51472133      4.04273437 Se
atom       5.11810577      7.74066873      0.75642433 Se
atom       1.63398952      9.58037111      2.70767798 W
atom       3.36202162     10.45641644      4.31981050 Se
atom       3.29147335     10.49670108      0.96215332 Se
atom       0.03369089     12.42560441      2.69694117 W
atom       1.70370779     13.35194555      4.37173984 Se
atom       1.68019883     13.36020012      0.99616761 Se
atom       9.91470495      1.01774953      2.68742521 W
atom      11.55756703      1.96766799      4.37642373 Se
atom      11.56371320      1.97113247      1.00187293 Se
atom       8.26511327      3.86970165      2.66624913 W
atom       9.90159545      4.82377924      4.36015471 Se
atom       9.92697389      4.80698656      0.98234589 Se
atom       6.62875987      6.72222853      2.58473203 W
atom       8.23740388      7.66437642      4.30757600 Se
atom       8.30574102      7.66726940      0.93281852 Se
atom       4.98985470      9.53093689      2.55594621 W
atom       6.59361355     10.47352566      4.29815357 Se
atom       6.64831417     10.55047950      0.93243447 Se
atom       3.33395659     12.39596503      2.66520677 W
atom       4.97529460     13.34211100      4.36042701 Se
atom       4.97475903     13.37163848      0.98386537 Se
atom      13.20544293      1.02024120      2.69004219 W
atom      14.84144767      1.95475942      4.39907816 Se
atom      14.86077566      1.99885169      1.02457586 Se
atom      11.56185870      3.86971276      2.68997982 W
atom      13.18584483      4.82124591      4.39975430 Se
atom      13.23398540      4.81883297      1.02584964 Se
atom       9.91738632      6.71318718      2.65893268 W
atom      11.52010384      7.67105001      4.37610087 Se
atom      11.57390942      7.66780245      0.98963965 Se
atom       8.26741387      9.56438839      2.62510591 W
atom       9.88142216     10.50129815      4.35467115 Se
atom       9.92916280     10.52752599      0.97199325 Se
atom       6.62296669     12.41836435      2.66097278 W
atom       8.25296479     13.33501040      4.37539651 Se
atom       8.27606338     13.38194721      0.98985996 Se
# 
# What follows is the current estimated Hessian matrix constructed by the BFGS algorithm.
# This is NOT the true Hessian matrix of the system.
# If you do not want this information here, switch it off using the "hessian_to_restart_geometry" keyword.
# 
trust_radius             0.0006663070
hessian_file
