# 
# This is the geometry file that corresponds to the current relaxation step.
# If you do not want this file to be written, set the "write_restart_geometry" flag to .false.
#  aims_uuid : 6601D7AB-E430-4D84-AFDB-7BDD2ECD3F52                                
# 
  set_vacuum_level        52.633048
lattice_vector     16.23865900      0.00000000      0.00000000
lattice_vector     -8.11989635     14.06215255      0.00000000
lattice_vector      0.00000000      0.00000000     99.93951163
atom_frac       0.03313559      0.06631387      0.02682188 Mo
atom_frac       0.16418543      0.13028280      0.04374105 Se
atom_frac       0.16903856      0.13492949      0.01068042 Se
atom_frac       0.03543573      0.26763140      0.02664666 Mo
atom_frac       0.17056740      0.33816230      0.04314065 Se
atom_frac       0.17075196      0.33287492      0.01016373 Se
atom_frac       0.03267931      0.46674752      0.02647193 Mo
atom_frac       0.16823046      0.53435923      0.04265250 Se
atom_frac       0.16352228      0.53424016      0.00953980 Se
atom_frac       0.03310566      0.66677898      0.02657722 Mo
atom_frac       0.16679074      0.73268320      0.04305217 Se
atom_frac       0.16554512      0.73494122      0.00987348 Se
atom_frac       0.03312929      0.86662394      0.02674571 Mo
atom_frac       0.16567368      0.93126359      0.04346228 Se
atom_frac       0.16696200      0.93464812      0.01027486 Se
atom_frac       0.23294368      0.06567441      0.02720674 Mo
atom_frac       0.36561816      0.12952842      0.04391176 Se
atom_frac       0.36700493      0.13488520      0.01079697 Se
atom_frac       0.23556131      0.26575660      0.02767160 Mo
atom_frac       0.35862299      0.31872302      0.04576264 Se
atom_frac       0.37620349      0.34790483      0.01316292 Se
atom_frac       0.23476406      0.47027743      0.02566229 Mo
atom_frac       0.37450474      0.52843120      0.04020027 Se
atom_frac       0.35787628      0.54021305      0.00754093 Se
atom_frac       0.23257953      0.66741544      0.02611360 Mo
atom_frac       0.36661821      0.73203325      0.04251314 Se
atom_frac       0.36502893      0.73666413      0.00939879 Se
atom_frac       0.23303443      0.86677439      0.02666892 Mo
atom_frac       0.36644290      0.93146236      0.04326822 Se
atom_frac       0.36643606      0.93514183      0.01007857 Se
atom_frac       0.43347955      0.06611195      0.02696314 Mo
atom_frac       0.56734759      0.13235211      0.04345745 Se
atom_frac       0.56666483      0.13450726      0.01036110 Se
atom_frac       0.43283786      0.26489566      0.02781792 Mo
atom_frac       0.56762821      0.33304432      0.04404052 Se
atom_frac       0.56417017      0.33380243      0.01089146 Se
atom_frac       0.56076732      0.52674225      0.04248533 Se
atom_frac       0.56233056      0.53368851      0.01058611 Se
atom_frac       0.43164266      0.66753534      0.02538855 Mo
atom_frac       0.56324780      0.72909663      0.04233481 Se
atom_frac       0.56711629      0.73371062      0.00924636 Se
atom_frac       0.43343206      0.86751463      0.02637612 Mo
atom_frac       0.56662475      0.93160277      0.04296443 Se
atom_frac       0.56718039      0.93449674      0.00987687 Se
atom_frac       0.63372473      0.06662145      0.02666168 Mo
atom_frac       0.76714145      0.13310698      0.04322180 Se
atom_frac       0.76706578      0.13354738      0.01009048 Se
atom_frac       0.63357864      0.26691183      0.02707531 Mo
atom_frac       0.76834909      0.33376388      0.04335411 Se
atom_frac       0.76564364      0.33277260      0.01024907 Se
atom_frac       0.63443768      0.46762659      0.02743804 Mo
atom_frac       0.76986170      0.53455321      0.04343856 Se
atom_frac       0.76448761      0.53239859      0.01023686 Se
atom_frac       0.63399012      0.66561140      0.02582333 Mo
atom_frac       0.76411690      0.73156857      0.04303644 Se
atom_frac       0.76970184      0.73489096      0.00987052 Se
atom_frac       0.63328948      0.86581347      0.02622607 Mo
atom_frac       0.76538866      0.93237207      0.04305355 Se
atom_frac       0.76809497      0.93408976      0.00995416 Se
atom_frac       0.83372330      0.06681195      0.02662870 Mo
atom_frac       0.96725598      0.13425318      0.04323858 Se
atom_frac       0.96795771      0.13387054      0.01014454 Se
atom_frac       0.83382251      0.26660489      0.02667093 Mo
atom_frac       0.96801004      0.33395360      0.04314041 Se
atom_frac       0.96724725      0.33285435      0.01005173 Se
atom_frac       0.83363865      0.46657754      0.02669120 Mo
atom_frac       0.96748222      0.53358712      0.04317344 Se
atom_frac       0.96561431      0.53338875      0.00998869 Se
atom_frac       0.83342259      0.66662484      0.02664803 Mo
atom_frac       0.96657645      0.73304517      0.04322219 Se
atom_frac       0.96667294      0.73376553      0.01010421 Se
atom_frac       0.83342936      0.86670375      0.02661609 Mo
atom_frac       0.96560975      0.93246627      0.04331607 Se
atom_frac       0.96753505      0.93404293      0.01014338 Se
# 
# What follows is the current estimated Hessian matrix constructed by the BFGS algorithm.
# This is NOT the true Hessian matrix of the system.
# If you do not want this information here, switch it off using the "hessian_to_restart_geometry" keyword.
# 
trust_radius             0.0869016086
hessian_file
