# 
# This is the geometry file that corresponds to the current relaxation step.
# If you do not want this file to be written, set the "write_restart_geometry" flag to .false.
#  aims_uuid : ABF2684F-1FBC-4BDD-AFF2-D42302A0A6ED                                
# 
  set_vacuum_level       103.288256
lattice_vector     16.31232095      0.00000000      0.00000000
lattice_vector     -8.15665875     14.12581815      0.00000000
lattice_vector      0.00000000      0.00000000    103.32585319
atom      -0.00788202      0.93063085     51.65553390 Mo
atom       1.61733083      1.82623196     53.35558067 Se
atom       1.63649905      1.89131193     50.02714803 Se
atom      -1.63214831      3.77368800     51.66257839 Mo
atom      -0.01343253      4.70041095     53.36572610 Se
atom       0.04679225      4.71322695     50.03521299 Se
atom      -3.26429857      6.58791145     51.62705489 Mo
atom      -1.66630650      7.54670036     53.30875327 Se
atom      -1.59468435      7.52029006     49.97889094 Se
atom      -4.88812378      9.41587779     51.61865495 Mo
atom      -3.26116685     10.35010983     53.29115562 Se
atom      -3.25528840     10.36049050     49.96406328 Se
atom      -6.52164074     12.23931995     51.62770539 Mo
atom      -4.89557608     13.14815299     53.31404513 Se
atom      -4.88727489     13.19424980     49.98115725 Se
atom       3.26060969      0.92023354     51.68007345 Mo
atom       4.90865580      1.82834403     53.34437709 Se
atom       4.86919203      1.89781600     50.02246132 Se
atom       1.62187668      3.73072855     51.73106603 Mo
atom       3.27401974      4.50170034     53.53192364 Se
atom       3.21957394      4.88335494     50.26042172 Se
atom       0.00235223      6.60239036     51.70405314 Mo
atom       1.67540300      7.43643812     53.22563887 Se
atom       1.73604490      7.54241680     50.02886059 Se
atom      -1.62874475      9.41455849     51.62753318 Mo
atom       0.02894574     10.33210677     53.27614387 Se
atom      -0.02987854     10.38110563     49.94636623 Se
atom      -3.25960803     12.23649989     51.63662628 Mo
atom      -1.62277336     13.16786104     53.30219230 Se
atom      -1.63753263     13.18912854     49.97110571 Se
atom       6.52688048      0.93121170     51.64519532 Mo
atom       8.15079376      1.89998771     53.29507659 Se
atom       8.13750378      1.89260154     49.97140419 Se
atom       4.84470605      3.74379233     51.73241240 Mo
atom       6.49349905      4.77828632     53.28168715 Se
atom       6.44791711      4.69944498     49.97363664 Se
atom       4.72049309      7.48199056     52.99498015 Se
atom       5.07804097      7.62579853     49.72330260 Se
atom       1.62239318      9.40800548     51.55090282 Mo
atom       3.28070452     10.31417029     53.21979665 Se
atom       3.26172868     10.37300358     49.88941379 Se
atom       0.00149333     12.24429191     51.62814386 Mo
atom       1.64161908     13.17784686     53.28059974 Se
atom       1.61430061     13.19748541     49.95439480 Se
atom       9.77927989      0.94834855     51.62754009 Mo
atom      11.40971210      1.88529460     53.29100609 Se
atom      11.41165576      1.88857705     49.96433528 Se
atom       8.12705559      3.78260801     51.62763708 Mo
atom       9.76912177      4.71862678     53.28387321 Se
atom       9.76938940      4.70339391     49.96023129 Se
atom       6.51975234      6.64454677     51.52291093 Mo
atom       8.13063070      7.54630847     53.23284867 Se
atom       8.21047732      7.54692124     49.91088102 Se
atom       4.91950244      9.44178564     51.52391490 Mo
atom       6.51956637     10.34883336     53.22814636 Se
atom       6.56658500     10.39826337     49.89970370 Se
atom       3.25486211     12.23806537     51.59265183 Mo
atom       4.88328449     13.16708052     53.26765554 Se
atom       4.89205738     13.20312877     49.94472383 Se
atom      13.04246188      0.94495102     51.62770778 Mo
atom      14.66304947      1.87344962     53.31065718 Se
atom      14.68987333      1.89891410     49.98770682 Se
atom      11.40785343      3.76906946     51.62778723 Mo
atom      13.02898277      4.71468485     53.30087742 Se
atom      13.05956900      4.70076387     49.97464560 Se
atom       9.79650330      6.59414881     51.61009907 Mo
atom      11.41032673      7.53482694     53.28415310 Se
atom      11.43602142      7.53269085     49.95300318 Se
atom       8.17286917      9.42816242     51.57523769 Mo
atom       9.78093748     10.34644853     53.27418921 Se
atom       9.81665107     10.37679357     49.94123888 Se
atom       6.52941694     12.25330435     51.59987167 Mo
atom       8.14441551     13.15786832     53.29463118 Se
atom       8.17193272     13.20560336     49.96078028 Se
# 
# What follows is the current estimated Hessian matrix constructed by the BFGS algorithm.
# This is NOT the true Hessian matrix of the system.
# If you do not want this information here, switch it off using the "hessian_to_restart_geometry" keyword.
# 
trust_radius             0.0005370186
hessian_file
