# 
# This is the geometry file that corresponds to the current relaxation step.
# If you do not want this file to be written, set the "write_restart_geometry" flag to .false.
#  aims_uuid : 23112F49-F034-4D39-AB72-E150EBFD12F3                                
# 
  set_vacuum_level       103.288256
lattice_vector     16.31232095      0.00000000      0.00000000
lattice_vector     -8.15665875     14.12581815      0.00000000
lattice_vector      0.00000000      0.00000000    103.32585319
atom      -0.00791354      0.93066760     51.65552682 Mo
atom       1.61735038      1.82629084     53.35555531 Se
atom       1.63648895      1.89128243     50.02711540 Se
atom      -1.63215721      3.77367357     51.66256875 Mo
atom      -0.01344733      4.70039445     53.36565746 Se
atom       0.04676482      4.71321706     50.03518443 Se
atom      -3.26431490      6.58787175     51.62704894 Mo
atom      -1.66629985      7.54668041     53.30874734 Se
atom      -1.59464349      7.52027817     49.97888791 Se
atom      -4.88803435      9.41589465     51.61865969 Mo
atom      -3.26117480     10.35011081     53.29115634 Se
atom      -3.25525485     10.36050075     49.96404109 Se
atom      -6.52161975     12.23933525     51.62770761 Mo
atom      -4.89556056     13.14811900     53.31405812 Se
atom      -4.88728228     13.19425872     49.98115108 Se
atom       3.26062471      0.92016480     51.68006750 Mo
atom       4.90865597      1.82835800     53.34438696 Se
atom       4.86920434      1.89783555     50.02246498 Se
atom       1.62186633      3.73072121     51.73097395 Mo
atom       3.27404568      4.50167972     53.53192629 Se
atom       3.21951281      4.88328294     50.26037415 Se
atom       0.00243585      6.60236580     51.70399291 Mo
atom       1.67552985      7.43634507     53.22560750 Se
atom       1.73613102      7.54246032     50.02879579 Se
atom      -1.62866398      9.41453217     51.62754436 Mo
atom       0.02894431     10.33210444     53.27613280 Se
atom      -0.02986328     10.38108718     49.94638405 Se
atom      -3.25957568     12.23643569     51.63662292 Mo
atom      -1.62276585     13.16787316     53.30223522 Se
atom      -1.63750628     13.18911833     49.97112619 Se
atom       6.52681818      0.93120427     51.64513765 Mo
atom       8.15076587      1.90000544     53.29506781 Se
atom       8.13749773      1.89259903     49.97144307 Se
atom       4.84463648      3.74378517     51.73241942 Mo
atom       6.49342882      4.77827444     53.28168770 Se
atom       6.44786915      4.69945043     49.97363573 Se
atom       4.72049111      7.48205649     52.99496560 Se
atom       5.07794303      7.62580028     49.72339860 Se
atom       1.62243034      9.40804358     51.55091249 Mo
atom       3.28072669     10.31419413     53.21982683 Se
atom       3.26177217     10.37306286     49.88946202 Se
atom       0.00149777     12.24429369     51.62813025 Mo
atom       1.64160532     13.17785762     53.28061454 Se
atom       1.61429578     13.19750710     49.95439905 Se
atom       9.77926467      0.94834342     51.62754450 Mo
atom      11.40972542      1.88532232     53.29100198 Se
atom      11.41164225      1.88858295     49.96436918 Se
atom       8.12705682      3.78268479     51.62763318 Mo
atom       9.76913925      4.71861268     53.28387801 Se
atom       9.76940629      4.70337321     49.96023587 Se
atom       6.51974921      6.64449929     51.52291783 Mo
atom       8.13061524      7.54635591     53.23291026 Se
atom       8.21039319      7.54695656     49.91085115 Se
atom       4.91949874      9.44181809     51.52402068 Mo
atom       6.51959360     10.34882879     53.22816879 Se
atom       6.56651631     10.39823284     49.89974648 Se
atom       3.25481575     12.23808502     51.59267056 Mo
atom       4.88328550     13.16710504     53.26764168 Se
atom       4.89204281     13.20311585     49.94476037 Se
atom      13.04247477      0.94493573     51.62770055 Mo
atom      14.66302019      1.87345577     53.31066243 Se
atom      14.68985417      1.89894576     49.98768757 Se
atom      11.40784519      3.76912508     51.62774909 Mo
atom      13.02899979      4.71466051     53.30087408 Se
atom      13.05960602      4.70074888     49.97464487 Se
atom       9.79635377      6.59415864     51.61008798 Mo
atom      11.41031910      7.53480372     53.28413396 Se
atom      11.43601054      7.53270464     49.95302559 Se
atom       8.17292414      9.42820909     51.57523919 Mo
atom       9.78090685     10.34643452     53.27416729 Se
atom       9.81666692     10.37677473     49.94126567 Se
atom       6.52943562     12.25330794     51.59988734 Mo
atom       8.14442287     13.15786475     53.29464018 Se
atom       8.17196567     13.20554523     49.96077807 Se
# 
# What follows is the current estimated Hessian matrix constructed by the BFGS algorithm.
# This is NOT the true Hessian matrix of the system.
# If you do not want this information here, switch it off using the "hessian_to_restart_geometry" keyword.
# 
trust_radius             0.0010740372
hessian_file
