# 
# This is the geometry file that corresponds to the current relaxation step.
# If you do not want this file to be written, set the "write_restart_geometry" flag to .false.
#  aims_uuid : C42BB713-29BF-48EC-A4F3-E8A2D3695509                                
# 
  set_vacuum_level       103.343980
lattice_vector     16.35742505      0.00000000      0.00000000
lattice_vector     -8.17073830     14.17072870      0.00000000
lattice_vector      0.00000000      0.00000000    103.34910518
atom       0.00396954      0.93778236     51.66996862 W
atom       1.64382670      1.91265614     53.33910809 Se
atom       1.64385959      1.91268353     50.00094622 Se
atom      -1.62775533      3.77864443     51.66996920 W
atom       0.01652875      4.72808946     53.34291898 Se
atom       0.01655897      4.72814862     49.99717737 Se
atom      -3.26884079      6.61385771     51.66998189 W
atom      -1.60467835      7.54694925     53.33905186 Se
atom      -1.60463001      7.54696722     50.00105902 Se
atom      -4.91949272      9.43585976     51.66998444 W
atom      -3.26687877     10.38000376     53.33681712 Se
atom      -3.26682968     10.38003525     50.00320467 Se
atom      -6.55145791     12.26621722     51.66999777 W
atom      -4.90765709     13.22554470     53.33682945 Se
atom      -4.90762409     13.22553342     50.00318964 Se
atom       3.27335903      0.95796179     51.66997355 W
atom       4.90713064      1.91618444     53.33998003 Se
atom       4.90704331      1.91617217     49.99997407 Se
atom       1.65991284      3.81808286     51.67001544 W
atom       3.32446916      4.84227626     53.33146837 Se
atom       3.32446151      4.84226338     50.00855248 Se
atom       0.05251031      6.60706501     51.67004971 W
atom       1.77178669      7.53672103     53.33168668 Se
atom       1.77175671      7.53671681     50.00838095 Se
atom      -1.61491945      9.43594501     51.67002443 W
atom       0.03146925     10.37225538     53.34013845 Se
atom       0.03140186     10.37220232     49.99987834 Se
atom      -3.26551075     12.27707121     51.66998098 W
atom      -1.62278094     13.22562593     53.33680544 Se
atom      -1.62282750     13.22557034     50.00316195 Se
atom       6.54012041      0.95800817     51.66989466 W
atom       8.17016196      1.91290846     53.33900567 Se
atom       8.17016684      1.91292489     50.00092121 Se
atom       4.90849794      3.82728201     51.66993646 W
atom       6.49270196      4.84269716     53.33179450 Se
atom       6.49264826      4.84270346     50.00815438 Se
atom       3.50682541      6.74261282     51.66997979 W
atom       1.68528804      9.41686555     51.66993460 W
atom       3.35693408     10.28089719     53.33188703 Se
atom       3.35693053     10.28086665     50.00812686 Se
atom       0.02033301     12.26613254     51.66992387 W
atom       1.66173916     13.20085654     53.33899384 Se
atom       1.66176150     13.20082424     50.00097514 Se
atom       9.80931975      0.93792597     51.66988100 W
atom      11.44675596      1.88350236     53.34092779 Se
atom      11.44677539      1.88351065     49.99897457 Se
atom       8.15655283      3.81849965     51.66988418 W
atom       9.80057024      4.72819717     53.34287216 Se
atom       9.80058576      4.72820176     49.99704916 Se
atom       6.31283556      6.74252285     51.66993864 W
atom       8.04862154      7.53665693     53.33153458 Se
atom       8.04860136      7.53671308     50.00839937 Se
atom       4.91111494      9.17566690     51.66997198 W
atom       6.46675041     10.28129205     53.33141928 Se
atom       6.46676397     10.28126496     50.00856050 Se
atom       3.30384411     12.23460321     51.66993438 W
atom       4.91336863     13.20459718     53.34284871 Se
atom       4.91337066     13.20457827     49.99713575 Se
atom      13.08543677      0.93256777     51.66993156 W
atom      14.72463059      1.88355194     53.34092747 Se
atom      14.72463088      1.88357542     49.99899214 Se
atom      11.44418063      3.77871169     51.66989694 W
atom      13.08730667      4.72312475     53.34095358 Se
atom      13.08732605      4.72314835     49.99898401 Se
atom       9.76728524      6.60718292     51.66992185 W
atom      11.42510397      7.54699694     53.33899346 Se
atom      11.42515721      7.54697675     50.00093332 Se
atom       8.13813549      9.41692010     51.66997946 W
atom       9.79237144     10.37233034     53.34010305 Se
atom       9.79237046     10.37236433     49.99981774 Se
atom       6.52251371     12.23501011     51.66994828 W
atom       8.16528603     13.20099796     53.33906861 Se
atom       8.16528873     13.20102293     50.00091989 Se
# 
# What follows is the current estimated Hessian matrix constructed by the BFGS algorithm.
# This is NOT the true Hessian matrix of the system.
# If you do not want this information here, switch it off using the "hessian_to_restart_geometry" keyword.
# 
trust_radius             0.0043172466
hessian_file
