# 
# This is the geometry file that corresponds to the current relaxation step.
# If you do not want this file to be written, set the "write_restart_geometry" flag to .false.
#  aims_uuid : 740F39A0-E0AC-4133-A68E-AE829FBD6F11                                
# 
  set_vacuum_level       103.343980
lattice_vector     16.35742505      0.00000000      0.00000000
lattice_vector     -8.17073830     14.17072870      0.00000000
lattice_vector      0.00000000      0.00000000    103.34910518
atom       0.00369571      0.93802092     51.66997982 W
atom       1.64389281      1.91256234     53.33909055 Se
atom       1.64390970      1.91255397     50.00091472 Se
atom      -1.62754533      3.77877271     51.66997666 W
atom       0.01651768      4.72813053     53.34286452 Se
atom       0.01652720      4.72813357     49.99712799 Se
atom      -3.26882668      6.61362606     51.67000741 W
atom      -1.60464877      7.54703635     53.33899311 Se
atom      -1.60467193      7.54703996     50.00101853 Se
atom      -4.91942730      9.43605785     51.66999308 W
atom      -3.26683767     10.37999872     53.33685346 Se
atom      -3.26683856     10.38000478     50.00316854 Se
atom      -6.55122466     12.26622127     51.67000186 W
atom      -4.90759468     13.22560927     53.33686445 Se
atom      -4.90759451     13.22560481     50.00315521 Se
atom       3.27332070      0.95797539     51.66999409 W
atom       4.90707142      1.91613322     53.34012278 Se
atom       4.90705333      1.91611391     49.99986770 Se
atom       1.66000782      3.81794606     51.66996994 W
atom       3.32453256      4.84244719     53.33132326 Se
atom       3.32451490      4.84243760     50.00863654 Se
atom       0.05237819      6.60704952     51.66997681 W
atom       1.77167187      7.53672438     53.33173863 Se
atom       1.77165844      7.53671840     50.00821696 Se
atom      -1.61493382      9.43605470     51.66998919 W
atom       0.03153651     10.37218339     53.34010260 Se
atom       0.03151891     10.37217306     49.99988989 Se
atom      -3.26554714     12.27697608     51.66999212 W
atom      -1.62283623     13.22563943     53.33685044 Se
atom      -1.62285461     13.22563039     50.00314671 Se
atom       6.54015208      0.95804112     51.66998210 W
atom       8.17016794      1.91280963     53.33898828 Se
atom       8.17014942      1.91279935     50.00094119 Se
atom       4.90844789      3.82660921     51.66997105 W
atom       6.49263499      4.84290043     53.33159847 Se
atom       6.49262633      4.84289353     50.00831551 Se
atom       3.50615994      6.74273564     51.66997175 W
atom       1.68539945      9.41667694     51.66995642 W
atom       3.35710820     10.28103429     53.33168945 Se
atom       3.35709867     10.28103653     50.00824979 Se
atom       0.02006429     12.26612905     51.66998108 W
atom       1.66163566     13.20084716     53.33895475 Se
atom       1.66163127     13.20083371     50.00097846 Se
atom       9.80970006      0.93805286     51.66993739 W
atom      11.44694797      1.88362619     53.34095339 Se
atom      11.44695664      1.88363916     49.99895821 Se
atom       8.15642752      3.81837018     51.66992773 W
atom       9.80063761      4.72821134     53.34286910 Se
atom       9.80065480      4.72821802     49.99705145 Se
atom       6.31331982      6.74291507     51.66994787 W
atom       8.04878059      7.53666497     53.33166390 Se
atom       8.04879707      7.53668769     50.00828774 Se
atom       4.91125813      9.17481441     51.66995065 W
atom       6.46662948     10.28150507     53.33134243 Se
atom       6.46665373     10.28151726     50.00863910 Se
atom       3.30365190     12.23487100     51.66996807 W
atom       4.91340133     13.20454084     53.34284468 Se
atom       4.91341609     13.20453215     49.99709590 Se
atom      13.08536410      0.93227290     51.66995842 W
atom      14.72444687      1.88360820     53.34094399 Se
atom      14.72446122      1.88360399     49.99898406 Se
atom      11.44400800      3.77879912     51.66996917 W
atom      13.08728618      4.72292789     53.34095262 Se
atom      13.08728376      4.72296082     49.99899198 Se
atom       9.76741346      6.60709958     51.66995278 W
atom      11.42510791      7.54704328     53.33899666 Se
atom      11.42513669      7.54704981     50.00098687 Se
atom       8.13779102      9.41668196     51.66997467 W
atom       9.79221971     10.37224846     53.34008761 Se
atom       9.79223045     10.37225835     49.99992169 Se
atom       6.52272666     12.23525084     51.66996254 W
atom       8.16534939     13.20100061     53.33905527 Se
atom       8.16536539     13.20098729     50.00092485 Se
# 
# What follows is the current estimated Hessian matrix constructed by the BFGS algorithm.
# This is NOT the true Hessian matrix of the system.
# If you do not want this information here, switch it off using the "hessian_to_restart_geometry" keyword.
# 
trust_radius             0.0004807393
hessian_file
