# 
# This is the geometry file that corresponds to the current relaxation step.
# If you do not want this file to be written, set the "write_restart_geometry" flag to .false.
#  aims_uuid : D8544E89-21AA-487A-AEFE-D3E4712F8EF0                                
# 
  set_vacuum_level        52.502520
lattice_vector     16.44347560      0.00000000      0.00000000
lattice_vector     -8.22357185     14.23911350      0.00000000
lattice_vector      0.00000000      0.00000000     99.63748923
atom       0.03155945      1.00249176      2.68450977 W
atom       1.65955118      1.90360069      4.41469241 Se
atom       1.70141673      1.97657475      1.03336892 Se
atom      -1.58544107      3.87721813      2.66619747 W
atom       0.05894986      4.88538652      4.33761006 Se
atom       0.11033794      4.79855395      0.99551140 Se
atom      -3.26832715      6.71480509      2.64775111 W
atom      -1.59184490      7.67441322      4.29990938 Se
atom      -1.67488519      7.67457913      0.91757465 Se
atom      -4.90563694      9.55768595      2.65627057 W
atom      -3.24927093     10.49597271      4.33701319 Se
atom      -3.28462814     10.52716687      0.95433335 Se
atom      -6.54827316     12.40237362      2.67599910 W
atom      -4.89839354     13.32197820      4.37810833 Se
atom      -4.90749785     13.36832662      0.99559401 Se
atom       3.32384327      0.99837656      2.71964413 W
atom       4.98077895      1.91075662      4.42153038 Se
atom       4.96041078      1.96336073      1.03216525 Se
atom       1.72551844      3.83022181      2.77885265 W
atom       3.31013081      4.63737768      4.56688040 Se
atom       3.36741571      4.98984119      1.28297967 Se
atom       0.02541092      6.76888897      2.55475366 W
atom       1.84637640      7.61080746      4.05321407 Se
atom       1.51665238      7.73707958      0.76628016 Se
atom      -1.62679421      9.56823395      2.61297661 W
atom       0.02794228     10.50237479      4.30015718 Se
atom      -0.00887306     10.54743375      0.91075708 Se
atom      -3.25900190     12.40517588      2.66629879 W
atom      -1.60195805     13.33160227      4.35925186 Se
atom      -1.62804212     13.37667094      0.97334748 Se
atom       6.61805632      1.00448926      2.69277074 W
atom       8.27179358      1.95616278      4.37291565 Se
atom       8.24564799      1.97550160      0.99680959 Se
atom       4.97523574      3.81720693      2.75729557 W
atom       6.62299381      4.80948888      4.41126090 Se
atom       6.56692614      4.81785444      1.04191251 Se
atom       4.93248787      7.56407347      4.28764791 Se
atom       4.87378626      7.67706912      1.03757665 Se
atom       1.63893239      9.58664423      2.57349863 W
atom       3.30434645     10.46300586      4.28794861 Se
atom       3.32474540     10.51677144      0.92068568 Se
atom       0.02605878     12.41743618      2.63982060 W
atom       1.68229638     13.33974356      4.33526266 Se
atom       1.67794987     13.37210318      0.95933813 Se
atom       9.90350539      1.01614465      2.66605808 W
atom      11.55086103      1.96636296      4.35306997 Se
atom      11.54994410      1.96779698      0.97894240 Se
atom       8.25413275      3.86766056      2.69437215 W
atom       9.91697879      4.81812615      4.36151195 Se
atom       9.89028524      4.80520719      0.98419979 Se
atom       6.62309159      6.72330709      2.73031213 W
atom       8.29271586      7.67244009      4.37110698 Se
atom       8.22826065      7.65244148      0.98400820 Se
atom       4.98373836      9.55832382      2.59984644 W
atom       6.58980137     10.48652584      4.34655732 Se
atom       6.64024158     10.53323159      0.96057928 Se
atom       3.32501736     12.40087421      2.63726636 W
atom       4.95483836     13.34927676      4.34752993 Se
atom       4.97947556     13.36627872      0.97035065 Se
atom      13.19691172      1.01912013      2.66715382 W
atom      14.83635580      1.97906578      4.35971138 Se
atom      14.84985850      1.97082044      0.98521492 Se
atom      11.55239691      3.86703539      2.66479677 W
atom      13.20243648      4.82285495      4.34692902 Se
atom      13.20332072      4.80721495      0.97241463 Se
atom       9.90298721      6.70890917      2.66329057 W
atom      11.55041719      7.66274052      4.34826321 Se
atom      11.52531868      7.66166042      0.96307837 Se
atom       8.25275439      9.55686050      2.66567779 W
atom       9.89891433     10.49950984      4.35527588 Se
atom       9.89200711     10.51228761      0.97676371 Se
atom       6.61046427     12.40966004      2.66852622 W
atom       8.24648506     13.33888849      4.36896418 Se
atom       8.26042978     13.36051336      0.98396098 Se
# 
# What follows is the current estimated Hessian matrix constructed by the BFGS algorithm.
# This is NOT the true Hessian matrix of the system.
# If you do not want this information here, switch it off using the "hessian_to_restart_geometry" keyword.
# 
trust_radius             0.0011451670
hessian_file
