# 
# This is the geometry file that corresponds to the current relaxation step.
# If you do not want this file to be written, set the "write_restart_geometry" flag to .false.
#  aims_uuid : 8584DD03-9F12-4617-AA5A-BA4E38AB7674                                
# 
  set_vacuum_level        52.665000
lattice_vector      3.24773180     -0.00038072     -0.00756829
lattice_vector     -1.62397927      2.81243051     -0.00599408
lattice_vector      0.00004322      0.00002895     99.93951163
atom      -0.00007593      0.93746852      2.66012397 Mo
atom       1.62762929      1.88036432      4.30730277 Se
atom       1.61999293      1.86885566      0.99887189 Se
# 
# What follows is the current estimated Hessian matrix constructed by the BFGS algorithm.
# This is NOT the true Hessian matrix of the system.
# If you do not want this information here, switch it off using the "hessian_to_restart_geometry" keyword.
# 
