# 
# This is the geometry file that corresponds to the current relaxation step.
# If you do not want this file to be written, set the "write_restart_geometry" flag to .false.
#  aims_uuid : 49B8141E-B366-48F3-A90D-2036F701446E                                
# 
  set_vacuum_level        52.665000
lattice_vector      3.24912777     -0.00038088     -0.00757154
lattice_vector     -1.62466176      2.81361245     -0.00599660
lattice_vector      0.00004322      0.00002895     99.93939581
atom      -0.00007253      0.93784404      2.66010973 Mo
atom       1.62834660      1.88115302      4.30552300 Se
atom       1.62069402      1.86966104      1.00064648 Se
# 
# What follows is the current estimated Hessian matrix constructed by the BFGS algorithm.
# This is NOT the true Hessian matrix of the system.
# If you do not want this information here, switch it off using the "hessian_to_restart_geometry" keyword.
# 
trust_radius             0.0002189208
hessian_file
