# 
# This is the geometry file that corresponds to the current relaxation step.
# If you do not want this file to be written, set the "write_restart_geometry" flag to .false.
#  aims_uuid : D2B58CA9-9766-45E8-A09F-F343073881DE                                
# 
  set_vacuum_level        53.449022
lattice_vector     15.67253790      0.00000000      0.00000000
lattice_vector     -7.83631930     13.57134925      0.00000000
lattice_vector      0.00000000      0.00000000     99.83654525
atom_frac       0.03333551      0.06667026      0.02600399 W
atom_frac       0.16680259      0.13340090      0.04161338 S
atom_frac       0.16666818      0.13333373      0.01037278 S
atom_frac       0.03331688      0.26663389      0.02601893 W
atom_frac       0.16665159      0.33326982      0.04165150 S
atom_frac       0.16651947      0.33345818      0.01038005 S
atom_frac       0.03340040      0.46665273      0.02603256 W
atom_frac       0.16665209      0.53330352      0.04168111 S
atom_frac       0.16671250      0.53342451      0.01040606 S
atom_frac       0.03339797      0.66675217      0.02603278 W
atom_frac       0.16665179      0.73334840      0.04168114 S
atom_frac       0.16671067      0.73328732      0.01040622 S
atom_frac       0.03331539      0.86668754      0.02601919 W
atom_frac       0.16665157      0.93338204      0.04165160 S
atom_frac       0.16651735      0.93306001      0.01038015 S
atom_frac       0.23342853      0.06647642      0.02598204 W
atom_frac       0.36673814      0.13359790      0.04160819 S
atom_frac       0.36599772      0.13227735      0.01023412 S
atom_frac       0.23342900      0.26695717      0.02598207 W
atom_frac       0.36673734      0.33313740      0.04160838 S
atom_frac       0.36599832      0.33372035      0.01023417 S
atom_frac       0.23325286      0.46665210      0.02603254 W
atom_frac       0.36683616      0.53316326      0.04163411 S
atom_frac       0.36655789      0.53344382      0.01039982 S
atom_frac       0.23333475      0.66667010      0.02605042 W
atom_frac       0.36669651      0.73334873      0.04168115 S
atom_frac       0.36657634      0.73328760      0.01040617 S
atom_frac       0.23325118      0.86660532      0.02603258 W
atom_frac       0.36683595      0.93367229      0.04163396 S
atom_frac       0.36655513      0.93311086      0.01039960 S
atom_frac       0.43345768      0.06691553      0.02596537 W
atom_frac       0.56686030      0.13359797      0.04160819 S
atom_frac       0.56628013      0.13227737      0.01023410 S
atom_frac       0.43111231      0.26555871      0.02582838 W
atom_frac       0.56666296      0.33332465      0.04098361 S
atom_frac       0.56665171      0.33330302      0.06030575 S
atom_frac       0.56666620      0.33333150      0.01048530 S
atom_frac       0.43345804      0.46654494      0.02596576 W
atom_frac       0.56685912      0.53325819      0.04160884 S
atom_frac       0.56628098      0.53400052      0.01023481 S
atom_frac       0.43335308      0.66675267      0.02603275 W
atom_frac       0.56672914      0.73334860      0.04165191 S
atom_frac       0.56654239      0.73347960      0.01038044 S
atom_frac       0.43335326      0.86660588      0.02603256 W
atom_frac       0.56672965      0.93338143      0.04165164 S
atom_frac       0.56654187      0.93305951      0.01038007 S
atom_frac       0.63304707      0.06647565      0.02598202 W
atom_frac       0.76659848      0.13340102      0.04161334 S
atom_frac       0.76666574      0.13333397      0.01037279 S
atom_frac       0.63444641      0.26555837      0.02582834 W
atom_frac       0.76640090      0.33313783      0.04160836 S
atom_frac       0.76772313      0.33372092      0.01023421 S
atom_frac       0.63444278      0.46888615      0.02582908 W
atom_frac       0.76639866      0.53325761      0.04160882 S
atom_frac       0.76771940      0.53400018      0.01023488 S
atom_frac       0.63304712      0.66657558      0.02598271 W
atom_frac       0.76659851      0.73319738      0.04161396 S
atom_frac       0.76666467      0.73332938      0.01037340 S
atom_frac       0.63337172      0.86668834      0.02601916 W
atom_frac       0.76672653      0.93336357      0.04164408 S
atom_frac       0.76665267      0.93332500      0.01037664 S
atom_frac       0.83333417      0.06667025      0.02600398 W
atom_frac       0.96663715      0.13327402      0.04164385 S
atom_frac       0.96667368      0.13334698      0.01037648 S
atom_frac       0.83352838      0.26695709      0.02598207 W
atom_frac       0.96661885      0.33327018      0.04165151 S
atom_frac       0.96693937      0.33345865      0.01038006 S
atom_frac       0.83308774      0.46654588      0.02596580 W
atom_frac       0.96632753      0.53316279      0.04163417 S
atom_frac       0.96688634      0.53344342      0.01039981 S
atom_frac       0.83352831      0.66657538      0.02598275 W
atom_frac       0.96661914      0.73334861      0.04165199 S
atom_frac       0.96693686      0.73347958      0.01038042 S
atom_frac       0.83333403      0.86666842      0.02600430 W
atom_frac       0.96663700      0.93336364      0.04164412 S
atom_frac       0.96667242      0.93332505      0.01037663 S
# 
# What follows is the current estimated Hessian matrix constructed by the BFGS algorithm.
# This is NOT the true Hessian matrix of the system.
# If you do not want this information here, switch it off using the "hessian_to_restart_geometry" keyword.
# 
