# 
# This is the geometry file that corresponds to the current relaxation step.
# If you do not want this file to be written, set the "write_restart_geometry" flag to .false.
#  aims_uuid : E41AFD54-D079-4D63-A9FD-BEBFBDEC11CC                                
# 
  set_vacuum_level        50.000000
lattice_vector      3.18363162     -0.00026482     -0.00000000
lattice_vector     -1.59202652      2.75694222      0.00000000
lattice_vector      0.00000000     -0.00000000     99.99982177
atom      -0.79591581     -0.45938737     -0.00000004 Mo
atom       0.79589430      0.45939474      1.56654552 S
atom       0.79589429      0.45939474     -1.56654547 S
# 
# What follows is the current estimated Hessian matrix constructed by the BFGS algorithm.
# This is NOT the true Hessian matrix of the system.
# If you do not want this information here, switch it off using the "hessian_to_restart_geometry" keyword.
# 
trust_radius             0.0001792470
hessian_file
