# 
# This is the geometry file that corresponds to the current relaxation step.
# If you do not want this file to be written, set the "write_restart_geometry" flag to .false.
#  aims_uuid : AE8621DE-FC32-4B87-AC8B-D69E698DA93C                                
# 
lattice_vector     16.55000000      0.00000000      0.00000000
lattice_vector     -8.27500000     14.33272043      0.00000000
lattice_vector      0.00000000      0.00000000    100.33000000
atom      -0.00897614      0.93883782      2.66500000 W
atom       1.64836680      1.88311180      4.34554691 Se
atom       1.64836680      1.88311180      0.98445309 Se
atom      -1.64551485      3.82754147      2.66500000 W
atom       0.02405379      4.79147401      4.33189207 Se
atom       0.02405379      4.79147401      0.99810793 Se
atom      -3.32889945      6.68917146      2.66500000 W
atom      -1.68248129      7.65234210      4.34555407 Se
atom      -1.68248129      7.65234210      0.98444593 Se
atom      -4.96500189      9.55707336      2.66500000 W
atom      -3.31639887     10.51435448      4.34894205 Se
atom      -3.31639887     10.51435448      0.98105795 Se
atom      -6.61832794     12.42073223      2.66500000 W
atom      -4.96499804     13.36981806      4.34895275 Se
atom      -4.96499804     13.36981806      0.98104725 Se
atom       3.31000791      0.93885012      2.66500000 W
atom       4.97165129      1.88311620      4.34554352 Se
atom       4.97165129      1.88311620      0.98445648 Se
atom       1.68282763      3.79281940      2.66500000 W
atom       3.31001702      4.74557019      4.33089277 Se
atom       3.31001702      4.74557019      0.99910723 Se
atom      -0.01138523      6.72738272      2.66500000 W
atom       1.62727823      7.66015462      4.33092553 Se
atom       1.62727823      7.66015462      0.99907447 Se
atom      -1.66941707      9.56348555      2.66500000 W
atom      -0.02086620     10.53036164      4.34556802 Se
atom      -0.02086620     10.53036164      0.98443198 Se
atom      -3.31167745     12.42073269      2.66500000 W
atom      -1.66026025     13.37415381      4.35307567 Se
atom      -1.66026025     13.37415381      0.97692433 Se
atom       6.62898630      0.93884124      2.66500000 W
atom       8.27451051      1.91347164      4.34568636 Se
atom       8.27451051      1.91347164      0.98431364 Se
atom       4.93719102      3.79282340      2.66500000 W
atom       6.59595484      4.79146449      4.33189583 Se
atom       6.59595484      4.79146449      0.99810417 Se
atom       4.99272800      7.66014128      4.33092363 Se
atom       4.99272800      7.66014128      0.99907637 Se
atom       1.61573310      9.54567935      2.66500000 W
atom       3.30998401     10.48288324      4.33191767 Se
atom       3.30998401     10.48288324      0.99808233 Se
atom      -0.00995286     12.43776331      2.66500000 W
atom       1.65686720     13.37554158      4.34567852 Se
atom       1.65686720     13.37554158      0.98432148 Se
atom       9.93005872      0.95555021      2.66500000 W
atom      11.58499767      1.91102032      4.34545745 Se
atom      11.58499767      1.91102032      0.98454255 Se
atom       8.26551511      3.82753819      2.66500000 W
atom       9.92764182      4.77676997      4.34568318 Se
atom       9.92764182      4.77676997      0.98431682 Se
atom       6.63138787      6.72735307      2.66500000 W
atom       8.30248861      7.65232810      4.34555021 Se
atom       8.30248861      7.65232810      0.98444979 Se
atom       5.00423282      9.54569375      2.66500000 W
atom       6.64085352     10.53036068      4.34556827 Se
atom       6.64085352     10.53036068      0.98443173 Se
atom       3.30998301     12.41069488      2.66500000 W
atom       4.96311626     13.37554024      4.34567674 Se
atom       4.96311626     13.37554024      0.98432326 Se
atom      13.23992868      0.95555135      2.66500000 W
atom      14.89549179      1.91347026      4.34568497 Se
atom      14.89549179      1.91347026      0.98431503 Se
atom      11.58499876      3.82197980      2.66500000 W
atom      13.24236643      4.77677547      4.34568285 Se
atom      13.24236643      4.77677547      0.98431715 Se
atom       9.94891178      6.68916307      2.66500000 W
atom      11.58500579      7.65018978      4.35306999 Se
atom      11.58500579      7.65018978      0.97693001 Se
atom       8.28940431      9.56348203      2.66500000 W
atom       9.93639305     10.51435105      4.34894178 Se
atom       9.93639305     10.51435105      0.98105822 Se
atom       6.62994314     12.43776889      2.66500000 W
atom       8.28025938     13.37415386      4.35307776 Se
atom       8.28025938     13.37415386      0.97692224 Se
# 
# What follows is the current estimated Hessian matrix constructed by the BFGS algorithm.
# This is NOT the true Hessian matrix of the system.
# If you do not want this information here, switch it off using the "hessian_to_restart_geometry" keyword.
# 
