lattice_vector     19.08121902      0.00000000      0.00000000
lattice_vector     -6.309810550711609     14.097587986063449      0.00000000
lattice_vector      0.00000000      0.00000000    100.000000
#lattice_vector  15.76960250 0.00000000 0.00000000
#lattice_vector  -7.88732950 13.65525595 0.00000000
#lattice_vector  0.00000000 0.00000000 99.30554027
atom_frac 0.53339843 0.56670230 0.49650342 Mo
atom_frac 0.66673439 0.63336509 0.51230261 S
atom_frac 0.66673439 0.63336509 0.48070423 S
atom_frac 0.53339664 0.76670141 0.49650342 Mo
atom_frac 0.66673409 0.83336593 0.51230227 S
atom_frac 0.66673409 0.83336593 0.48070457 S
atom_frac 0.53339608 0.96670044 0.49650342 Mo
atom_frac 0.66673377 0.03336533 0.51230224 S
atom_frac 0.66673377 0.03336533 0.48070459 S
atom_frac 0.53339784 0.16670347 0.49650342 Mo
atom_frac 0.66673465 0.23336539 0.51230237 S
atom_frac 0.66673465 0.23336539 0.48070447 S
atom_frac 0.53339806 0.36670338 0.49650342 Mo
atom_frac 0.66673377 0.43336553 0.51230246 S
atom_frac 0.66673377 0.43336553 0.48070438 S
atom_frac 0.73339560 0.56670106 0.49650342 Mo
atom_frac 0.86673290 0.63336444 0.51230249 S
atom_frac 0.86673290 0.63336444 0.48070435 S
atom_frac 0.73339607 0.76670120 0.49650342 Mo
atom_frac 0.86673416 0.83336555 0.51230232 S
atom_frac 0.86673416 0.83336555 0.48070452 S
atom_frac 0.73339773 0.96670287 0.49650342 Mo
atom_frac 0.86673437 0.03336585 0.51230227 S
atom_frac 0.86673437 0.03336585 0.48070456 S
atom_frac 0.73339794 0.16670306 0.49650342 Mo
atom_frac 0.86673366 0.23336516 0.51230248 S
atom_frac 0.86673366 0.23336516 0.48070435 S
atom_frac 0.73339569 0.36670309 0.49650342 Mo
atom_frac 0.86673319 0.43336407 0.51230228 S
atom_frac 0.86673319 0.43336407 0.48070456 S
atom_frac 0.93339624 0.56670066 0.49650342 Mo
atom_frac 0.06673324 0.63336523 0.51230240 S
atom_frac 0.06673324 0.63336523 0.48070443 S
atom_frac 0.93339568 0.76670017 0.49650342 Mo
atom_frac 0.06673396 0.83336537 0.51230217 S
atom_frac 0.06673396 0.83336537 0.48070467 S
atom_frac 0.93339580 0.96670143 0.49650342 Mo
atom_frac 0.06673384 0.03336517 0.51230219 S
atom_frac 0.06673384 0.03336517 0.48070465 S
atom_frac 0.93339684 0.16670323 0.49650342 Mo
atom_frac 0.06673363 0.23336527 0.51230234 S
atom_frac 0.06673363 0.23336527 0.48070450 S
atom_frac 0.93339728 0.36670137 0.49650342 Mo
atom_frac 0.06673383 0.43336569 0.51230228 S
atom_frac 0.06673383 0.43336569 0.48070455 S
atom_frac 0.13339709 0.56670215 0.49650342 Mo
atom_frac 0.26673391 0.63336575 0.51230239 S
atom_frac 0.26673391 0.63336575 0.48070444 S
atom_frac 0.13339835 0.76670154 0.49650342 Mo
atom_frac 0.26673433 0.83336589 0.51230229 S
atom_frac 0.26673433 0.83336589 0.48070455 S
atom_frac 0.13339634 0.96670136 0.49650342 Mo
atom_frac 0.26673384 0.03336555 0.51230207 S
atom_frac 0.26673384 0.03336555 0.48070477 S
atom_frac 0.13339579 0.16670200 0.49650342 Mo
atom_frac 0.26673302 0.23336514 0.51230222 S
atom_frac 0.26673302 0.23336514 0.48070462 S
atom_frac 0.13339574 0.36670144 0.49650342 Mo
atom_frac 0.26673330 0.43336469 0.51230208 S
atom_frac 0.26673330 0.43336469 0.48070475 S
atom_frac 0.33339649 0.56670245 0.49650342 Mo
atom_frac 0.46673371 0.63336460 0.48070439 S
atom_frac 0.33339669 0.76670244 0.49650342 Mo
atom_frac 0.46673366 0.83336456 0.51230238 S
atom_frac 0.46673366 0.83336456 0.48070446 S
atom_frac 0.33339662 0.96670190 0.49650342 Mo
atom_frac 0.46673392 0.03336528 0.51230223 S
atom_frac 0.46673392 0.03336528 0.48070460 S
atom_frac 0.33339835 0.16670406 0.49650342 Mo
atom_frac 0.46673402 0.23336558 0.51230239 S
atom_frac 0.46673402 0.23336558 0.48070445 S
atom_frac 0.33339885 0.36670268 0.49650342 Mo
atom_frac 0.46673412 0.43336521 0.51230237 S
atom_frac 0.46673412 0.43336521 0.48070447 S
