# 
# This is the geometry file that corresponds to the current relaxation step.
# If you do not want this file to be written, set the "write_restart_geometry" flag to .false.
#  aims_uuid : B9365F88-6FF3-44AD-A9A7-E02A8514205A                                
# 
  set_vacuum_level        99.650341
lattice_vector     15.80271867      0.00000000      0.00000000
lattice_vector     -7.87096434     13.65967927      0.00000000
lattice_vector      0.00000000      0.00000000    100.00000000
atom_frac       0.53137723      0.56883206      0.49573551 Mo
atom_frac       0.66095210      0.63358073      0.51184463 S
atom_frac       0.66554770      0.63170444      0.48048087 S
atom_frac       0.53136630      0.76254411      0.49573426 Mo
atom_frac       0.66091850      0.82732881      0.51184522 S
atom_frac       0.66554784      0.83384229      0.48048069 S
atom_frac       0.53342812      0.96557170      0.49659646 Mo
atom_frac       0.66599952      0.03187850      0.51237917 S
atom_frac       0.66690915      0.03379231      0.48104278 S
atom_frac       0.53335635      0.16668466      0.49677273 Mo
atom_frac       0.66634885      0.23317159      0.51249899 S
atom_frac       0.66688317      0.23343404      0.48116318 S
atom_frac       0.53343088      0.36787093      0.49659676 Mo
atom_frac       0.66600872      0.43411802      0.51237804 S
atom_frac       0.66690540      0.43310344      0.48104180 S
atom_frac       0.73235537      0.56676074      0.49658599 Mo
atom_frac       0.86562435      0.63359698      0.51232750 S
atom_frac       0.86638445      0.63271287      0.48100001 S
atom_frac       0.73101015      0.76551369      0.49617835 Mo
atom_frac       0.86408511      0.83203670      0.51207171 S
atom_frac       0.86676942      0.83338550      0.48082774 S
atom_frac       0.73234584      0.96560187      0.49658779 Mo
atom_frac       0.86561506      0.03201197      0.51232931 S
atom_frac       0.86637941      0.03366556      0.48100206 S
atom_frac       0.73331343      0.16647654      0.49682646 Mo
atom_frac       0.86690187      0.23316378      0.51249403 S
atom_frac       0.86658661      0.23343389      0.48115846 S
atom_frac       0.73331364      0.36684854      0.49682552 Mo
atom_frac       0.86690363      0.43373638      0.51249274 S
atom_frac       0.86658647      0.43313776      0.48115737 S
atom_frac       0.93348351      0.56682088      0.49676120 Mo
atom_frac       0.06802530      0.63358724      0.51232865 S
atom_frac       0.06639887      0.63271996      0.48100184 S
atom_frac       0.93288223      0.76642736      0.49658356 Mo
atom_frac       0.06661580      0.83316517      0.51223171 S
atom_frac       0.06659155      0.83308553      0.48093853 S
atom_frac       0.93287949      0.96647156      0.49658466 Mo
atom_frac       0.06661534      0.03344212      0.51223268 S
atom_frac       0.06658939      0.03350630      0.48093965 S
atom_frac       0.93348126      0.16667718      0.49676350 Mo
atom_frac       0.06803068      0.23443885      0.51233067 S
atom_frac       0.06639836      0.23367490      0.48100437 S
atom_frac       0.93367242      0.36684254      0.49682168 Mo
atom_frac       0.06814667      0.43407646      0.51237332 S
atom_frac       0.06625199      0.43311749      0.48103798 S
atom_frac       0.13454496      0.56674774      0.49658738 Mo
atom_frac       0.27266592      0.63355282      0.51185026 S
atom_frac       0.26622388      0.63171962      0.48048559 S
atom_frac       0.13371220      0.76642636      0.49658622 Mo
atom_frac       0.26802081      0.83201647      0.51207712 S
atom_frac       0.26671247      0.83338972      0.48083331 S
atom_frac       0.13345551      0.96673676      0.49658364 Mo
atom_frac       0.26689581      0.03344353      0.51223626 S
atom_frac       0.26702666      0.03351251      0.48094414 S
atom_frac       0.13371146      0.16730405      0.49658797 Mo
atom_frac       0.26802443      0.23600011      0.51207843 S
atom_frac       0.26670942      0.23331855      0.48083475 S
atom_frac       0.13454944      0.36782166      0.49658947 Mo
atom_frac       0.27269366      0.43913586      0.51185233 S
atom_frac       0.26621846      0.43449209      0.48048667 S
atom_frac       0.33754656      0.56878395      0.49574000 Mo
atom_frac       0.46663540      0.63330210      0.47989657 S
atom_frac       0.33468337      0.76550210      0.49618446 Mo
atom_frac       0.46649654      0.82720455      0.51185437 S
atom_frac       0.46837115      0.83385899      0.48048456 S
atom_frac       0.33376718      0.96646681      0.49659152 Mo
atom_frac       0.46647806      0.03198965      0.51233759 S
atom_frac       0.46737298      0.03366531      0.48101218 S
atom_frac       0.33376698      0.16731641      0.49659217 Mo
atom_frac       0.46647948      0.23447981      0.51233786 S
atom_frac       0.46737036      0.23369852      0.48101262 S
atom_frac       0.33468515      0.36920089      0.49618588 Mo
atom_frac       0.46650087      0.43928133      0.51185591 S
atom_frac       0.46836577      0.43450024      0.48048577 S
# 
# What follows is the current estimated Hessian matrix constructed by the BFGS algorithm.
# This is NOT the true Hessian matrix of the system.
# If you do not want this information here, switch it off using the "hessian_to_restart_geometry" keyword.
# 
trust_radius             0.0003432348
hessian_file
