# 
# This is the geometry file that corresponds to the current relaxation step.
# If you do not want this file to be written, set the "write_restart_geometry" flag to .false.
#  aims_uuid : 337E511A-6C12-41C8-AABC-48B332FC4497                                
# 
  set_vacuum_level        99.650341
lattice_vector     15.80271867      0.00000000      0.00000000
lattice_vector     -7.87096434     13.65967927      0.00000000
lattice_vector      0.00000000      0.00000000    100.00000000
atom_frac       0.53128698      0.56874836      0.49573471 Mo
atom_frac       0.66093988      0.63361935      0.51183806 S
atom_frac       0.66551655      0.63168490      0.48048989 S
atom_frac       0.53133098      0.76258715      0.49573102 Mo
atom_frac       0.66092332      0.82728076      0.51183957 S
atom_frac       0.66554527      0.83383814      0.48048899 S
atom_frac       0.53345150      0.96563168      0.49659806 Mo
atom_frac       0.66598989      0.03184855      0.51238321 S
atom_frac       0.66690034      0.03376544      0.48104369 S
atom_frac       0.53342728      0.16669038      0.49677519 Mo
atom_frac       0.66641535      0.23321145      0.51250226 S
atom_frac       0.66695011      0.23347392      0.48116382 S
atom_frac       0.53342819      0.36784057      0.49659831 Mo
atom_frac       0.66599674      0.43413463      0.51237904 S
atom_frac       0.66689440      0.43311725      0.48104542 S
atom_frac       0.73241915      0.56677466      0.49658741 Mo
atom_frac       0.86561921      0.63362554      0.51233225 S
atom_frac       0.86636536      0.63271209      0.48099503 S
atom_frac       0.73114185      0.76557003      0.49617454 Mo
atom_frac       0.86412464      0.83205552      0.51207686 S
atom_frac       0.86682035      0.83341100      0.48081998 S
atom_frac       0.73239754      0.96566479      0.49658921 Mo
atom_frac       0.86561533      0.03196875      0.51233305 S
atom_frac       0.86636560      0.03363796      0.48099842 S
atom_frac       0.73327343      0.16639558      0.49682856 Mo
atom_frac       0.86690371      0.23318524      0.51249507 S
atom_frac       0.86658757      0.23345675      0.48116097 S
atom_frac       0.73330226      0.36689343      0.49682751 Mo
atom_frac       0.86691090      0.43373278      0.51249415 S
atom_frac       0.86659252      0.43313076      0.48115932 S
atom_frac       0.93343015      0.56688716      0.49676329 Mo
atom_frac       0.06801383      0.63354799      0.51232385 S
atom_frac       0.06637015      0.63265286      0.48100596 S
atom_frac       0.93285994      0.76639346      0.49658308 Mo
atom_frac       0.06664004      0.83320688      0.51222409 S
atom_frac       0.06660555      0.83310587      0.48093464 S
atom_frac       0.93285987      0.96646142      0.49658435 Mo
atom_frac       0.06663381      0.03342870      0.51222518 S
atom_frac       0.06659716      0.03350410      0.48093574 S
atom_frac       0.93338933      0.16655145      0.49676577 Mo
atom_frac       0.06801153      0.23445960      0.51232332 S
atom_frac       0.06636158      0.23370614      0.48101130 S
atom_frac       0.93362579      0.36682802      0.49682362 Mo
atom_frac       0.06813918      0.43406932      0.51236614 S
atom_frac       0.06623667      0.43310598      0.48104888 S
atom_frac       0.13463569      0.56680198      0.49658854 Mo
atom_frac       0.27271634      0.63359417      0.51185460 S
atom_frac       0.26624950      0.63169805      0.48048289 S
atom_frac       0.13368095      0.76636243      0.49658572 Mo
atom_frac       0.26801670      0.83202147      0.51207671 S
atom_frac       0.26670559      0.83340188      0.48083118 S
atom_frac       0.13343886      0.96673474      0.49657935 Mo
atom_frac       0.26686723      0.03342595      0.51222794 S
atom_frac       0.26702011      0.03350570      0.48094143 S
atom_frac       0.13370488      0.16733927      0.49658751 Mo
atom_frac       0.26803469      0.23601200      0.51207613 S
atom_frac       0.26671682      0.23332218      0.48083463 S
atom_frac       0.13465848      0.36786735      0.49659069 Mo
atom_frac       0.27272696      0.43913013      0.51186136 S
atom_frac       0.26622592      0.43451617      0.48047885 S
atom_frac       0.33754864      0.56875013      0.49574367 Mo
atom_frac       0.46664307      0.63331558      0.47989957 S
atom_frac       0.33464537      0.76547163      0.49618125 Mo
atom_frac       0.46644308      0.82718850      0.51185483 S
atom_frac       0.46835790      0.83389166      0.48048586 S
atom_frac       0.33375544      0.96643599      0.49659106 Mo
atom_frac       0.46644195      0.03197379      0.51233491 S
atom_frac       0.46736699      0.03366604      0.48101531 S
atom_frac       0.33375083      0.16732796      0.49659159 Mo
atom_frac       0.46646115      0.23445957      0.51233238 S
atom_frac       0.46738173      0.23369094      0.48101844 S
atom_frac       0.33467727      0.36925948      0.49618304 Mo
atom_frac       0.46645737      0.43924319      0.51185893 S
atom_frac       0.46836217      0.43445814      0.48048397 S
# 
# What follows is the current estimated Hessian matrix constructed by the BFGS algorithm.
# This is NOT the true Hessian matrix of the system.
# If you do not want this information here, switch it off using the "hessian_to_restart_geometry" keyword.
# 
trust_radius             0.0115923987
hessian_file
