# 
# This is the geometry file that corresponds to the current relaxation step.
# If you do not want this file to be written, set the "write_restart_geometry" flag to .false.
#  aims_uuid : A99F1AC4-AFE4-48DF-A2D5-A4BD3C67D40B                                
# 
  set_vacuum_level       103.108052
lattice_vector     15.72118630     -0.00130770      0.00000000
lattice_vector     -7.86163315     13.61413775      0.00000000
lattice_vector      0.00000000      0.00000000    103.10805205
atom       7.07349571     13.15604627     51.58554167 Mo
atom       0.79062185      0.45108050     53.13876965 S
atom       0.78347315      0.45519547     50.03239827 S
atom      13.36012334      2.26939830     51.58551194 Mo
atom      -0.78628326      3.18187183     53.13873306 S
atom      -0.78626804      3.17353924     50.03234218 S
atom      11.77247289      4.98912749     51.56279472 Mo
atom      -2.37753966      5.90291992     53.12193678 S
atom      -2.35997751      5.89005975     50.01722467 S
atom      10.18986681      7.69717181     51.52273823 Mo
atom      -3.96048854      8.60512153     53.09680967 S
atom      -3.93124502      8.62205413     49.99891681 S
atom       8.63545497     10.42144949     51.56285862 Mo
atom      -5.50969989     11.32682417     53.12200625 S
atom      -5.51204765     11.34850753     50.01731494 S
atom      -5.50283233     13.15982248     51.57900719 Mo
atom       3.94281479      0.46809210     53.12202310 S
atom       3.92287947      0.45928320     50.01733403 S
atom       0.78854838      2.27044296     51.58553262 Mo
atom       2.37438739      3.18581187     53.12834788 S
atom       2.35268865      3.17318776     50.02122417 S
atom      -0.78647093      4.99244416     51.57890826 Mo
atom       0.80455995      5.90266134     53.12192259 S
atom       0.78698782      5.88979188     50.01721898 S
atom      -2.36557861      7.71026403     51.56078308 Mo
atom      -0.78670022      8.61950890     53.11162852 S
atom      -0.78671451      8.61789706     50.00972568 S
atom      -3.93824787     10.43363149     51.56083826 Mo
atom      -2.36113004     11.34594223     53.11168099 S
atom      -2.36257752     11.34680334     50.00978505 S
atom      -2.35954781     13.16791952     51.56086611 Mo
atom       7.07451787      0.48728115     53.09686363 S
atom       7.07449823      0.45349815     49.99898045 S
atom       3.93778843      2.28500239     51.56287765 Mo
atom       5.55206950      3.25305408     53.07744310 S
atom       5.48587795      3.19624617     49.96836866 S
atom       2.37578928      4.98992824     51.56278253 Mo
atom       4.02142415      5.90350483     53.07733931 S
atom       3.93930997      5.87455765     49.96831233 S
atom       0.79221562      7.71000852     51.56076861 Mo
atom       2.38708846      8.60460468     53.09678294 S
atom       2.35782702      8.62152601     49.99888320 S
atom      -0.78689981     10.43710106     51.56031196 Mo
atom       0.78730608     11.34568374     53.11165833 S
atom       0.78871904     11.34654140     50.00976334 S
atom       0.78534214     13.16766244     51.56084395 Mo
atom      10.20623558      0.46753826     53.12198455 S
atom      10.22614186      0.45874225     50.01728619 S
atom       7.07431127      2.30097868     51.52279463 Mo
atom       8.59661252      3.25267375     53.07741598 S
atom       8.66270728      3.19598392     49.96839440 S
atom       5.55437485      5.02138636     51.48231232 Mo
atom       7.07414610      5.89852082     49.90969547 S
atom       3.95793164      7.69767823     51.52270360 Mo
atom       5.54351691      8.53975664     53.07732186 S
atom       5.52751260      8.62537772     49.96833242 S
atom       2.36444543     10.43310242     51.56080053 Mo
atom       3.93586161     11.32605127     53.12195609 S
atom       3.93820780     11.34771769     50.01725766 S
atom       3.92864278     13.15903019     51.57895438 Mo
atom      13.35839551      0.45003352     53.13874117 S
atom      13.36558609      0.45415347     50.03237165 S
atom      10.21088893      2.28443876     51.56283891 Mo
atom      11.77423407      3.18499492     53.12833125 S
atom      11.79594440      3.17241452     50.02119729 S
atom       8.59388965      5.02110884     51.48235630 Mo
atom      10.12680094      5.90298136     53.07736750 S
atom      10.20890669      5.87405715     49.96836062 S
atom       7.07390764      7.65325558     51.48230070 Mo
atom       8.60419552      8.53939421     53.07739024 S
atom       8.62027156      8.62514073     49.96834072 S
atom       5.51193943     10.42173590     51.56280693 Mo
atom       7.07366682     11.32500410     53.12835686 S
atom       7.07371168     11.35009636     50.02122397 S
# 
# What follows is the current estimated Hessian matrix constructed by the BFGS algorithm.
# This is NOT the true Hessian matrix of the system.
# If you do not want this information here, switch it off using the "hessian_to_restart_geometry" keyword.
# 
trust_radius             0.0010090464
hessian_file
