# 
# This is the geometry file that corresponds to the current relaxation step.
# If you do not want this file to be written, set the "write_restart_geometry" flag to .false.
#  aims_uuid : BB344BD1-925C-4BFF-A941-2DE5C38CE3F7                                
# 
  set_vacuum_level        52.665000
lattice_vector     16.30066971      0.00550601      0.00580538
lattice_vector     -8.14547925     14.11943911      0.00611979
lattice_vector     -0.00027683     -0.00047987     99.78976923
atom       0.00243381      0.95926110      2.65963423 W
atom       1.62996764      1.91481483      4.35934499 Se
atom       1.63122476      1.91699696      0.96228048 Se
atom      -1.60185357      3.80560358      2.66118748 W
atom       0.05262929      4.82935604      4.35271097 Se
atom       0.05362937      4.83165057      0.97188060 Se
atom      -3.20864910      6.59214109      2.66275754 W
atom      -1.49475895      7.51337529      4.35465096 Se
atom      -1.49389832      7.51545503      0.97281437 Se
atom      -4.87008830      9.40576124      2.66391548 W
atom      -3.22872504     10.33783440      4.36343321 Se
atom      -3.22770788     10.33988077      0.96643240 Se
atom      -6.51581468     12.23685969      2.66474264 W
atom      -4.87952890     13.18201480      4.36120118 Se
atom      -4.87814976     13.18397579      0.97064137 Se
atom       3.25865395      0.96038208      2.66086572 W
atom       4.88147953      1.91032193      4.36121707 Se
atom       4.88303870      1.91260589      0.96332282 Se
atom       1.63167611      3.82015817      2.66208452 W
atom       3.20900862      4.83114284      4.35425259 Se
atom       3.21045254      4.83329710      0.97259791 Se
atom       0.23307409      6.72349192      2.66366638 W
atom      -1.57956027      9.38693808      2.66483365 W
atom       0.08425751     10.24824923      4.35671967 Se
atom       0.08520389     10.25052685      0.97497139 Se
atom      -3.24104296     12.22725921      2.66605563 W
atom      -1.60721750     13.15841528      4.36615277 Se
atom      -1.60595685     13.16066970      0.96839579 Se
atom       6.51497493      0.94034721      2.66241700 W
atom       8.14679663      1.88274958      4.36319912 Se
atom       8.14810132      1.88516912      0.96426031 Se
atom       4.86451492      3.80832363      2.66355464 W
atom       6.50432283      4.71811917      4.36453387 Se
atom       6.50588274      4.72037574      0.96532541 Se
atom       3.03149971      6.72465006      2.66454171 W
atom       4.75862935      7.51551406      4.35665685 Se
atom       4.76021122      7.51761550      0.97501462 Se
atom       1.63337729      9.14869803      2.66554559 W
atom       3.18205494     10.25009490      4.35721403 Se
atom       3.18333426     10.25229802      0.97647064 Se
atom       0.02633311     12.19521119      2.66720124 W
atom       1.63392595     13.16119179      4.36794941 Se
atom       1.63500552     13.16357004      0.96881188 Se
atom       9.78079295      0.93632210      2.66362346 W
atom      11.41371886      1.88379335      4.36423432 Se
atom      11.41476133      1.88625366      0.96536341 Se
atom       8.14430757      3.77292277      2.66504257 W
atom       9.78119854      4.71349066      4.36579189 Se
atom       9.78239908      4.71582202      0.96681675 Se
atom       6.47362193      6.59549899      2.66613160 W
atom       8.12460246      7.52752252      4.36638397 Se
atom       8.12600818      7.52959405      0.96852542 Se
atom       4.84692854      9.38921952      2.66699545 W
atom       6.49486750     10.34137062      4.36677116 Se
atom       6.49638145     10.34328918      0.96981351 Se
atom       3.24287627     12.19692781      2.66817940 W
atom       4.87526837     13.16085515      4.36837851 Se
atom       4.87640237     13.16312571      0.97033077 Se
atom      13.04672602      0.94253724      2.66455445 W
atom      14.67903297      1.91329349      4.36467990 Se
atom      14.67998642      1.91563435      0.96658426 Se
atom      11.41915008      3.77396792      2.66618833 W
atom      13.05806015      4.72020581      4.36685827 Se
atom      13.05892302      4.72252934      0.96768719 Se
atom       9.78273867      6.60022624      2.66755618 W
atom      11.43988718      7.52865474      4.36751072 Se
atom      11.44094779      7.53067647      0.96977888 Se
atom       8.13722470      9.41017081      2.66854029 W
atom       9.78337735     10.35074772      4.36492421 Se
atom       9.78458232     10.35252891      0.97430120 Se
atom       6.51011368     12.23075232      2.66931284 W
atom       8.14740326     13.18642938      4.36574564 Se
atom       8.14864266     13.18838142      0.97512593 Se
# 
# What follows is the current estimated Hessian matrix constructed by the BFGS algorithm.
# This is NOT the true Hessian matrix of the system.
# If you do not want this information here, switch it off using the "hessian_to_restart_geometry" keyword.
# 
trust_radius             0.0001728915
hessian_file
