# 
# This is the geometry file that corresponds to the current relaxation step.
# If you do not want this file to be written, set the "write_restart_geometry" flag to .false.
#  aims_uuid : ECC7B1C8-DABF-4C23-A7AE-93F8A9EDE1A3                                
# 
  set_vacuum_level        52.665000
lattice_vector     16.30066971      0.00550601      0.00580538
lattice_vector     -8.14547925     14.11943911      0.00611979
lattice_vector     -0.00027683     -0.00047987     99.78976923
atom       0.00254193      0.95872616      2.66004754 W
atom       1.62974511      1.91265949      4.35570008 Se
atom       1.63160757      1.91583479      0.96665152 Se
atom      -1.60292250      3.80462930      2.66130279 W
atom       0.05074633      4.82691064      4.34671577 Se
atom       0.05214134      4.83022062      0.97813551 Se
atom      -3.20997265      6.59150270      2.66236492 W
atom      -1.49738810      7.51230628      4.34888000 Se
atom      -1.49547906      7.51495876      0.97837030 Se
atom      -4.87077802      9.40651625      2.66370630 W
atom      -3.22979504     10.33763007      4.35910560 Se
atom      -3.22794568     10.34082472      0.97060393 Se
atom      -6.51529867     12.23676041      2.66490143 W
atom      -4.88061627     13.18089740      4.35587128 Se
atom      -4.87882932     13.18394707      0.97629723 Se
atom       3.25834599      0.96043270      2.66117861 W
atom       4.88213001      1.91008217      4.35732457 Se
atom       4.88398937      1.91316508      0.96737038 Se
atom       1.63128042      3.81561104      2.66256651 W
atom       3.20961489      4.82959484      4.34828369 Se
atom       3.21149837      4.83253822      0.97880451 Se
atom       0.23399535      6.72445896      2.66403113 W
atom      -1.58249464      9.38868519      2.66484251 W
atom       0.08371986     10.25013660      4.35126629 Se
atom       0.08504904     10.25310771      0.98072988 Se
atom      -3.24203006     12.22740346      2.66601123 W
atom      -1.60667976     13.15816563      4.36198750 Se
atom      -1.60491800     13.16130744      0.97247230 Se
atom       6.51543226      0.94068466      2.66233764 W
atom       8.14617534      1.88235177      4.35909546 Se
atom       8.14800409      1.88546396      0.96792923 Se
atom       4.86465034      3.80774135      2.66371643 W
atom       6.50394775      4.71782225      4.35949203 Se
atom       6.50576178      4.72094201      0.96997590 Se
atom       3.03205933      6.72415684      2.66479906 W
atom       4.76003232      7.51502023      4.35065591 Se
atom       4.76164474      7.51807627      0.98125358 Se
atom       1.63271459      9.14811879      2.66558003 W
atom       3.18247899     10.25203812      4.35139859 Se
atom       3.18465295     10.25492275      0.98285910 Se
atom       0.02605607     12.19658097      2.66729100 W
atom       1.63367277     13.16065478      4.36326757 Se
atom       1.63547960     13.16391882      0.97366796 Se
atom       9.78055127      0.93508798      2.66342524 W
atom      11.41362571      1.88326850      4.36015962 Se
atom      11.41541849      1.88636954      0.96917829 Se
atom       8.14267814      3.77381748      2.66470782 W
atom       9.78070993      4.71348530      4.36147673 Se
atom       9.78250206      4.71660551      0.97031980 Se
atom       6.47436445      6.59562699      2.66578462 W
atom       8.12468901      7.52618627      4.36207674 Se
atom       8.12645113      7.52932074      0.97213779 Se
atom       4.85088191      9.39190618      2.66694180 W
atom       6.49623112     10.34158495      4.36283673 Se
atom       6.49808315     10.34478353      0.97382594 Se
atom       3.24320241     12.19817131      2.66832216 W
atom       4.87451549     13.16098680      4.36449932 Se
atom       4.87635326     13.16405639      0.97459224 Se
atom      13.04607856      0.94291869      2.66466121 W
atom      14.67798447      1.91294335      4.36074094 Se
atom      14.67972070      1.91605720      0.97091480 Se
atom      11.42014239      3.77481736      2.66594727 W
atom      13.05778904      4.71974923      4.36181100 Se
atom      13.05970553      4.72292520      0.97214981 Se
atom       9.78279635      6.59967282      2.66708321 W
atom      11.43971424      7.52724060      4.36297159 Se
atom      11.44155197      7.53032926      0.97359602 Se
atom       8.13693338      9.41032862      2.66830629 W
atom       9.78306849     10.35122565      4.35930012 Se
atom       9.78482766     10.35429707      0.97966764 Se
atom       6.51038401     12.23077386      2.66948024 W
atom       8.14846490     13.18501606      4.36047384 Se
atom       8.15023419     13.18805206      0.98095902 Se
# 
# What follows is the current estimated Hessian matrix constructed by the BFGS algorithm.
# This is NOT the true Hessian matrix of the system.
# If you do not want this information here, switch it off using the "hessian_to_restart_geometry" keyword.
# 
trust_radius             0.0891804874
hessian_file
