# 
# This is the geometry file that corresponds to the current relaxation step.
# If you do not want this file to be written, set the "write_restart_geometry" flag to .false.
#  aims_uuid : CF2D89EF-493B-4F94-A8B2-67295F799982                                
# 
  set_vacuum_level       103.343980
lattice_vector     16.35742505      0.00000000      0.00000000
lattice_vector     -8.17073830     14.17072870      0.00000000
lattice_vector      0.00000000      0.00000000    103.34910518
atom      -0.00049025      0.94034575     51.71391578 W
atom       1.65299149      1.91135233     53.36884253 Se
atom       1.63065903      1.89613429     50.03585401 Se
atom      -1.62896657      3.78685452     51.72034756 W
atom       0.02320601      4.77561848     53.36042484 Se
atom      -0.00598670      4.71535775     50.01993206 Se
atom      -3.25396869      6.63718346     51.71416537 W
atom      -1.53996729      7.66582600     53.32439278 Se
atom      -1.64385377      7.57293289     49.98926607 Se
atom      -4.89044312      9.43711885     51.69203473 W
atom      -3.15474217     10.38355809     53.30922609 Se
atom      -3.25244054     10.36082087     49.98584326 Se
atom      -6.53823913     12.26804218     51.69322113 W
atom      -4.87156180     13.20477371     53.34585272 Se
atom      -4.90797246     13.22582973     50.01240300 Se
atom       3.27817749      0.94580441     51.69324688 W
atom       4.91525503      1.90718103     53.35311764 Se
atom       4.91444698      1.88807720     50.01886458 Se
atom       1.64763906      3.81129079     51.69164755 W
atom       3.31797546      4.85148116     53.32025359 Se
atom       3.26591442      4.75186326     49.98581605 Se
atom       0.02316348      6.64258441     51.64495075 W
atom       1.69504201      7.64413245     53.25861469 Se
atom       1.66538464      7.55148217     49.93537416 Se
atom      -1.50914454      9.50479193     51.58958355 W
atom       0.00772418     10.38582845     49.80564283 Se
atom      -3.23948054     12.26189316     51.64924108 W
atom      -1.56992912     13.12674165     53.30921679 Se
atom      -1.59906384     13.22272403     49.98580401 Se
atom       6.55372815      0.93238601     51.69202160 W
atom       8.16297919      1.87947626     53.38605769 Se
atom       8.18726800      1.89503103     50.04266416 Se
atom       4.90537709      3.81183326     51.66596651 W
atom       6.48486669      4.81679021     53.33499665 Se
atom       6.56375663      4.73959414     50.00385396 Se
atom       3.37952709      6.69350008     51.58411458 W
atom       4.92402808      7.54551280     49.82094382 Se
atom       1.56743733      9.48469563     51.54376449 W
atom       3.22562224     10.29361067     53.25859683 Se
atom       3.29102548     10.36555481     49.93530537 Se
atom       0.01324974     12.14003078     51.58954306 W
atom       1.59093822     13.08529223     53.32433867 Se
atom       1.61950633     13.22172979     49.98921334 Se
atom       9.79661403      0.91326607     51.71417111 W
atom      11.43375907      1.85646213     53.39826010 Se
atom      11.44176848      1.88704490     50.06120055 Se
atom       8.17264403      3.78908846     51.71697653 W
atom       9.80082918      4.72810187     53.40472148 Se
atom       9.82252775      4.71552871     50.05807483 Se
atom       6.43854706      6.67052607     51.60755969 W
atom       8.06753044      7.55644585     53.33497265 Se
atom       8.17381732      7.52660366     50.00380716 Se
atom       4.89056526      9.30924517     51.58401546 W
atom       6.45553396     10.28262441     53.32018482 Se
atom       6.51582668     10.37745796     49.98569155 Se
atom       3.25816874     12.24221703     51.64490913 W
atom       4.87552852     13.17481779     53.36036280 Se
atom       4.91310232     13.23022745     50.01985241 Se
atom      13.07756779      0.92928096     51.72032906 W
atom      14.72281032      1.88444898     53.39001724 Se
atom      14.71450533      1.88925368     50.05235063 Se
atom      11.44969471      3.77543095     51.73999102 W
atom      13.10415200      4.74780161     53.39828537 Se
atom      13.08166487      4.72555477     50.06121672 Se
atom       9.80091011      6.60760673     51.71696892 W
atom      11.45041880      7.56992108     53.38601829 Se
atom      11.44906272      7.54106874     50.04267571 Se
atom       8.14905130      9.42672582     51.66589674 W
atom       9.80403577     10.36961397     53.35307318 Se
atom       9.82020135     10.37982817     50.01884387 Se
atom       6.52227236     12.24920445     51.69157559 W
atom       8.17089466     13.19362015     53.36877557 Se
atom       8.17294903     13.22060797     50.03580571 Se
# 
# What follows is the current estimated Hessian matrix constructed by the BFGS algorithm.
# This is NOT the true Hessian matrix of the system.
# If you do not want this information here, switch it off using the "hessian_to_restart_geometry" keyword.
# 
trust_radius             0.0010970524
hessian_file
