# 
# This is the geometry file that corresponds to the current relaxation step.
# If you do not want this file to be written, set the "write_restart_geometry" flag to .false.
#  aims_uuid : AA8187E4-6453-4295-A1C3-C91ACFD2927B                                
# 
  set_vacuum_level       103.343980
lattice_vector     16.35742505      0.00000000      0.00000000
lattice_vector     -8.17073830     14.17072870      0.00000000
lattice_vector      0.00000000      0.00000000    103.34910518
atom      -0.00070083      0.94039437     51.71350976 W
atom       1.65278377      1.91098145     53.36866750 Se
atom       1.63083483      1.89623676     50.03588763 Se
atom      -1.62898362      3.78674603     51.71968845 W
atom       0.02281223      4.77526776     53.36032038 Se
atom      -0.00569094      4.71566124     50.01971645 Se
atom      -3.25394683      6.63697323     51.71383396 W
atom      -1.54049817      7.66551019     53.32441220 Se
atom      -1.64351347      7.57309236     49.98954488 Se
atom      -4.89046826      9.43700026     51.69198719 W
atom      -3.15505638     10.38349112     53.30944967 Se
atom      -3.25213518     10.36093791     49.98618175 Se
atom      -6.53832156     12.26792766     51.69319311 W
atom      -4.87167109     13.20480201     53.34594741 Se
atom      -4.90785573     13.22579290     50.01242145 Se
atom       3.27818382      0.94587585     51.69321671 W
atom       4.91525265      1.90703423     53.35315421 Se
atom       4.91440153      1.88817431     50.01882936 Se
atom       1.64764260      3.81115221     51.69159662 W
atom       3.31784367      4.85096058     53.32061741 Se
atom       3.26596660      4.75210461     49.98622342 Se
atom       0.02303699      6.64259558     51.64522056 W
atom       1.69477862      7.64395689     53.25936855 Se
atom       1.66544159      7.55167524     49.93618596 Se
atom      -1.50914968      9.50471610     51.59017196 W
atom       0.00796596     10.38565295     49.80635252 Se
atom      -3.23954081     12.26190090     51.64937557 W
atom      -1.57001352     13.12697918     53.30949265 Se
atom      -1.59906793     13.22242119     49.98621895 Se
atom       6.55378921      0.93239962     51.69200335 W
atom       8.16310549      1.87965427     53.38562989 Se
atom       8.18708399      1.89492313     50.04231060 Se
atom       4.90540812      3.81174511     51.66620270 W
atom       6.48525838      4.81651899     53.33513331 Se
atom       6.56334993      4.73971132     50.00385102 Se
atom       3.37961495      6.69368879     51.58494301 W
atom       4.92390111      7.54561735     49.82129954 Se
atom       1.56733091      9.48479537     51.54480027 W
atom       3.22564846     10.29391369     53.25929621 Se
atom       3.29091807     10.36540437     49.93606018 Se
atom       0.01336374     12.14006172     51.58996046 W
atom       1.59097000     13.08591938     53.32434717 Se
atom       1.61961738     13.22136788     49.98947609 Se
atom       9.79666570      0.91340803     51.71374041 W
atom      11.43392856      1.85679567     53.39760666 Se
atom      11.44170192      1.88685550     50.06055035 Se
atom       8.17276617      3.78917921     51.71642544 W
atom       9.80107072      4.72790984     53.40398457 Se
atom       9.82234334      4.71562675     50.05734818 Se
atom       6.43860649      6.67044559     51.60775286 W
atom       8.06790975      7.55621692     53.33507079 Se
atom       8.17352146      7.52689019     50.00382139 Se
atom       4.89051121      9.30906146     51.58489447 W
atom       6.45588133     10.28301995     53.32051647 Se
atom       6.51561268     10.37728721     49.98607916 Se
atom       3.25805192     12.24227264     51.64519843 W
atom       4.87560991     13.17529908     53.36021444 Se
atom       4.91299456     13.22985216     50.01958262 Se
atom      13.07763775      0.92929332     51.71959894 W
atom      14.72276513      1.88453402     53.38952733 Se
atom      14.71467692      1.88922232     50.05185955 Se
atom      11.44957883      3.77549060     51.73904435 W
atom      13.10398718      4.74746752     53.39763743 Se
atom      13.08181269      4.72580147     50.06056220 Se
atom       9.80093609      6.60753435     51.71635512 W
atom      11.45040998      7.56973113     53.38553148 Se
atom      11.44906297      7.54132096     50.04231702 Se
atom       8.14907986      9.42673522     51.66604280 W
atom       9.80418917     10.36974874     53.35305056 Se
atom       9.82009909     10.37982567     50.01873141 Se
atom       6.52238314     12.24931606     51.69150049 W
atom       8.17114243     13.19397675     53.36859761 Se
atom       8.17296544     13.22043392     50.03581814 Se
# 
# What follows is the current estimated Hessian matrix constructed by the BFGS algorithm.
# This is NOT the true Hessian matrix of the system.
# If you do not want this information here, switch it off using the "hessian_to_restart_geometry" keyword.
# 
trust_radius             0.0046070361
hessian_file
