lattice_vector     15.90000000      0.00000000      0.00000000
lattice_vector     -7.95000000     13.76980390      0.00000000
lattice_vector      0.00000000      0.00000000    100.00000000
atom       1.58080373      0.90652082      3.07250000 Mo
atom      -0.00074157      1.84102204      4.63336675 S
atom      -0.00074157      1.84102204      1.51163325 S
atom       0.01239464      3.67962724      3.07250000 Mo
atom      -1.58639677      4.58746088      4.63336766 S
atom      -1.58639677      4.58746088      1.51163234 S
atom      -1.60485780      6.42430219      3.07250000 Mo
atom      -3.17998241      7.34800574      4.63738973 S
atom      -3.17998241      7.34800574      1.50761027 S
atom      -3.17997310      9.18367964      3.07250000 Mo
atom      -4.76266917     10.10236311      4.63769871 S
atom      -4.76266917     10.10236311      1.50730129 S
atom      -4.76693309     11.93242504      3.07250000 Mo
atom      -6.35670418     12.85028137      4.63740178 S
atom      -6.35670418     12.85028137      1.50759822 S
atom       4.77008544      0.89773060      3.07250000 Mo
atom       3.17422458      1.81194116      4.62729872 S
atom       3.17422458      1.81194116      1.51770128 S
atom       3.21750437      3.65934275      3.07250000 Mo
atom       1.61587723      4.60533908      4.62509504 S
atom       1.61587723      4.60533908      1.51990496 S
atom       1.59750627      6.46536747      3.07250000 Mo
atom      -0.02399253      7.35143596      4.62727524 S
atom      -0.02399253      7.35143596      1.51772476 S
atom      -0.01782410      9.19056329      3.07250000 Mo
atom      -1.59723414     10.10240659      4.63768849 S
atom      -1.59723414     10.10240659      1.50731151 S
atom      -1.59296466     11.93245726      3.07250000 Mo
atom      -3.17991748     12.84374706      4.63770710 S
atom      -3.17991748     12.84374706      1.50729290 S
atom       7.95923096      0.90651444      3.07250000 Mo
atom       6.36595017      1.81199592      4.62727266 S
atom       6.36595017      1.81199592      1.51772734 S
atom       6.32263822      3.65939444      3.07250000 Mo
atom       4.77013766      4.51704509      4.64328185 S
atom       4.77013766      4.51704509      1.50171815 S
atom       3.11651588      7.38098313      4.64328152 S
atom       3.11651588      7.38098313      1.50171848 S
atom       3.14991578      9.15432722      3.07250000 Mo
atom       1.57179250     10.11548071      4.62729633 S
atom       1.57179250     10.11548071      1.51770367 S
atom       1.58429345     11.94807927      3.07250000 Mo
atom      -0.00321962     12.85030191      4.63739556 S
atom      -0.00321962     12.85030191      1.50760444 S
atom      11.13252536      0.91991730      3.07250000 Mo
atom       9.54069423      1.84100232      4.63336476 S
atom       9.54069423      1.84100232      1.51163524 S
atom       9.52747941      3.67956320      3.07250000 Mo
atom       7.92412313      4.60523814      4.62511093 S
atom       7.92412313      4.60523814      1.51988907 S
atom       7.94242448      6.46511620      3.07250000 Mo
atom       6.42346162      7.38081066      4.64330105 S
atom       6.42346162      7.38081066      1.50169895 S
atom       6.38994733      9.15429302      3.07250000 Mo
atom       4.76991304     10.06838021      4.62511809 S
atom       4.76991304     10.06838021      1.51988191 S
atom       4.76987974     11.91983337      3.07250000 Mo
atom       3.18427931     12.85052376      4.63336662 S
atom       3.18427931     12.85052376      1.51163338 S
atom      14.30730049      0.91993451      3.07250000 Mo
atom      12.71993113      1.83641030      4.63492560 S
atom      12.71993113      1.83641030      1.51007440 S
atom      12.71992839      3.66938674      3.07250000 Mo
atom      11.12632316      4.58740325      4.63336542 S
atom      11.12632316      4.58740325      1.51163458 S
atom      11.14484548      6.42422229      3.07250000 Mo
atom       9.56400173      7.35128867      4.62726461 S
atom       9.56400173      7.35128867      1.51773539 S
atom       9.55785063      9.19048232      3.07250000 Mo
atom       7.96821591     10.11543730      4.62731351 S
atom       7.96821591     10.11543730      1.51768649 S
atom       7.95564711     11.94807423      3.07250000 Mo
atom       6.35559232     12.85051820      4.63336448 S
atom       6.35559232     12.85051820      1.51163552 S
# 
