# 
# This is the geometry file that corresponds to the current relaxation step.
# If you do not want this file to be written, set the "write_restart_geometry" flag to .false.
#  aims_uuid : 51E68E1B-6ADE-4A14-A4D6-EADB5D70510B                                
# 
  set_vacuum_level         0.700814
lattice_vector     15.72847685      0.00000000      0.00000000
lattice_vector     -7.86461685     13.62035640      0.00000000
lattice_vector      0.00000000      0.00000000    103.13570646
atom      -0.00047148      0.90767566     51.56723162 W
atom       1.57216116      1.81585225     53.13517121 S
atom       1.57271304      1.81170468     49.99871477 S
atom      -1.57292910      3.63137337     51.56570682 W
atom       0.00129958      4.54025684     53.13137519 S
atom      -0.00004871      4.53947571     49.99806209 S
atom      -3.14585335      6.35503323     51.56719139 W
atom      -1.57291094      7.26262192     53.13516738 S
atom      -1.57619748      7.26519180     49.99869425 S
atom      -4.71762284      9.07932162     51.56864704 W
atom      -3.14594833      9.98720935     53.13800847 S
atom      -3.14595958      9.98878614     50.00133880 S
atom      -6.29131337     11.80474031     51.56866746 W
atom      -4.71919126     12.71182540     53.13803658 S
atom      -4.71784563     12.71102389     50.00132335 S
atom       3.14494152      0.90644533     51.56864146 W
atom       4.71849138      1.81970803     53.13354303 S
atom       4.71848833      1.81250362     50.00073313 S
atom       1.57556007      3.62870339     51.56374963 W
atom       3.14441268      4.54248149     53.13122230 S
atom       3.14345384      4.52556890     49.98492940 S
atom      -0.00106035      6.35932784     51.56374090 W
atom       1.57470064      7.26090212     53.13131438 S
atom       1.55957759      7.26857976     49.98485935 S
atom      -1.57426399      9.07933042     51.56863397 W
atom       0.00352041      9.98534742     53.13351884 S
atom      -0.00267229      9.98894758     50.00081509 S
atom      -3.14601559     11.80367212     51.57038159 W
atom      -1.57284933     12.71183717     53.13800003 S
atom      -1.57420244     12.71103664     50.00134453 S
atom       6.29209137      0.90651328     51.56863014 W
atom       7.86489084      1.81584657     53.13514684 S
atom       7.86434532      1.81168873     49.99871296 S
atom       4.71849742      3.63463719     51.56231209 W
atom       6.29246024      4.54250104     53.13125366 S
atom       6.29341102      4.52558804     49.98486901 S
atom       3.11941326      6.34050310     51.54951127 W
atom       4.71837261      7.26336614     53.07036519 S
atom       4.71837948      7.26305826     55.00779528 S
atom       4.71836739      7.26346355     50.01066340 S
atom       1.57548191      9.07789190     51.56235167 W
atom       3.14868654      9.98701065     53.13134369 S
atom       3.13452407      9.99632094     49.98493070 S
atom      -0.00069488     11.80471394     51.56865279 W
atom       1.57329698     12.71197962     53.13517983 S
atom       1.56947007     12.71353431     49.99877566 S
atom       9.43757325      0.90764740     51.56723776 W
atom      11.01063159      1.81576299     53.13429315 S
atom      11.00974075      1.81522003     49.99826199 S
atom       7.86126476      3.62870237     51.56372996 W
atom       9.43555890      4.54024300     53.13133974 S
atom       9.43690988      4.53947804     49.99808712 S
atom       6.31733625      6.34046996     51.54949524 W
atom       7.86198059      7.26090115     53.13133584 S
atom       7.87711692      7.26858915     49.98485582 S
atom       4.71826773      9.10960514     51.54956913 W
atom       6.28787470      9.98698868     53.13133416 S
atom       6.30204628      9.99629603     49.98495825 S
atom       3.14164039     11.80249071     51.56381374 W
atom       4.71821223     12.71002182     53.13143419 S
atom       4.71821289     12.71153556     49.99812174 S
atom      12.58273766      0.90737351     51.56572194 W
atom      14.15485904      1.81574610     53.13427106 S
atom      14.15574596      1.81521051     49.99828215 S
atom      11.00984449      3.63136892     51.56569335 W
atom      12.58266961      4.53861080     53.13420303 S
atom      12.58267443      4.53962680     49.99831438 S
atom       9.43776774      6.35936073     51.56374733 W
atom      11.00963760      7.26261190     53.13517117 S
atom      11.01291752      7.26518887     49.99871339 S
atom       7.86115731      9.07788393     51.56237289 W
atom       9.43305511      9.98536784     53.13353734 S
atom       9.43924911      9.98896296     50.00082772 S
atom       6.29480220     11.80246920     51.56381644 W
atom       7.86311414     12.71198589     53.13517006 S
atom       7.86694655     12.71353276     49.99879120 S
# 
# What follows is the current estimated Hessian matrix constructed by the BFGS algorithm.
# This is NOT the true Hessian matrix of the system.
# If you do not want this information here, switch it off using the "hessian_to_restart_geometry" keyword.
# 
trust_radius             0.0007254716
hessian_file
