# 
# This is the geometry file that corresponds to the current relaxation step.
# If you do not want this file to be written, set the "write_restart_geometry" flag to .false.
#  aims_uuid : 0F6AD189-CECE-44AE-A0FF-059465A22907                                
# 
  set_vacuum_level         0.700814
lattice_vector     15.72847685      0.00000000      0.00000000
lattice_vector     -7.86461685     13.62035640      0.00000000
lattice_vector      0.00000000      0.00000000    103.13570646
atom      -0.00046416      0.90762317     51.56718484 W
atom       1.57214731      1.81585670     53.13516009 S
atom       1.57270880      1.81170465     49.99875970 S
atom      -1.57296508      3.63140088     51.56566145 W
atom       0.00128277      4.54022743     53.13138732 S
atom      -0.00004136      4.53945345     49.99805573 S
atom      -3.14586309      6.35500625     51.56715891 W
atom      -1.57292505      7.26264451     53.13514461 S
atom      -1.57621899      7.26522121     49.99874486 S
atom      -4.71763722      9.07933819     51.56866518 W
atom      -3.14594762      9.98718314     53.13808008 S
atom      -3.14595565      9.98878714     50.00136549 S
atom      -6.29134248     11.80473714     51.56868286 W
atom      -4.71920353     12.71182581     53.13808477 S
atom      -4.71783390     12.71101302     50.00137117 S
atom       3.14491430      0.90646758     51.56866249 W
atom       4.71851025      1.81971924     53.13355561 S
atom       4.71850336      1.81251833     50.00080421 S
atom       1.57558073      3.62871592     51.56374029 W
atom       3.14439681      4.54249875     53.13124502 S
atom       3.14346451      4.52555340     49.98486733 S
atom      -0.00108316      6.35930361     51.56372308 W
atom       1.57472938      7.26089303     53.13126715 S
atom       1.55959379      7.26859444     49.98485370 S
atom      -1.57424255      9.07934424     51.56865865 W
atom       0.00353082      9.98536399     53.13355495 S
atom      -0.00267511      9.98895817     50.00082461 S
atom      -3.14600875     11.80364868     51.57040403 W
atom      -1.57283946     12.71183114     53.13806962 S
atom      -1.57422395     12.71101870     50.00136334 S
atom       6.29213574      0.90648940     51.56864866 W
atom       7.86488183      1.81585388     53.13515365 S
atom       7.86432435      1.81170228     49.99875533 S
atom       4.71846101      3.63466922     51.56230326 W
atom       6.29247211      4.54249913     53.13125132 S
atom       6.29340054      4.52555635     49.98485344 S
atom       3.11942040      6.34044491     51.54947862 W
atom       4.71836121      7.26337485     53.07036380 S
atom       4.71837714      7.26306688     55.00780928 S
atom       4.71835834      7.26346947     50.01066345 S
atom       1.57544851      9.07792057     51.56233351 W
atom       3.14870466      9.98700779     53.13131230 S
atom       3.13451952      9.99630597     49.98491420 S
atom      -0.00068283     11.80472935     51.56866167 W
atom       1.57328414     12.71196357     53.13517539 S
atom       1.56944945     12.71351952     49.99877973 S
atom       9.43752911      0.90761252     51.56717888 W
atom      11.01061894      1.81577018     53.13426917 S
atom      11.00974779      1.81523676     49.99828004 S
atom       7.86129555      3.62871178     51.56372541 W
atom       9.43557698      4.54022559     53.13137881 S
atom       9.43690549      4.53945805     49.99805971 S
atom       6.31732750      6.34043000     51.54947467 W
atom       7.86197593      7.26089028     53.13127423 S
atom       7.87711502      7.26860330     49.98485502 S
atom       4.71828839      9.10962250     51.54955179 W
atom       6.28785808      9.98699992     53.13131585 S
atom       6.30205497      9.99629835     49.98492756 S
atom       3.14162174     11.80251686     51.56378064 W
atom       4.71820814     12.71002154     53.13144254 S
atom       4.71821371     12.71152655     49.99811259 S
atom      12.58275524      0.90737457     51.56569476 W
atom      14.15487490      1.81576534     53.13426753 S
atom      14.15574892      1.81523103     49.99828687 S
atom      11.00986153      3.63140567     51.56566449 W
atom      12.58267067      4.53860352     53.13423801 S
atom      12.58267187      4.53961210     49.99827324 S
atom       9.43781385      6.35931505     51.56371807 W
atom      11.00964037      7.26263722     53.13514861 S
atom      11.01293291      7.26522133     49.99875087 S
atom       7.86116605      9.07791608     51.56234945 W
atom       9.43304536      9.98536468     53.13357302 S
atom       9.43924728      9.98896525     50.00084225 S
atom       6.29482641     11.80250721     51.56378851 W
atom       7.86312936     12.71196836     53.13518402 S
atom       7.86697348     12.71351737     49.99879414 S
# 
# What follows is the current estimated Hessian matrix constructed by the BFGS algorithm.
# This is NOT the true Hessian matrix of the system.
# If you do not want this information here, switch it off using the "hessian_to_restart_geometry" keyword.
# 
trust_radius             0.0003627358
hessian_file
