# 
# This is the geometry file that corresponds to the current relaxation step.
# If you do not want this file to be written, set the "write_restart_geometry" flag to .false.
#  aims_uuid : 84692A7A-746C-450B-A59D-5B3399D41432                                
# 
  set_vacuum_level        53.072500
lattice_vector     15.90000000      0.00000000      0.00000000
lattice_vector     -7.95000000     13.76980390      0.00000000
lattice_vector      0.00000000      0.00000000    100.00000000
atom       1.59613822      0.92191913      3.07250000 Mo
atom       0.00000973      1.83920609      4.63547536 S
atom       0.00000973      1.83920609      1.50952464 S
atom      -0.00002290      3.67479305      3.07250000 Mo
atom      -1.61356553      4.58352619      4.63399983 S
atom      -1.61356553      4.58352619      1.51100017 S
atom      -1.60497560      6.41751176      3.07250000 Mo
atom      -3.20896606      7.32757763      4.62985078 S
atom      -3.20896606      7.32757763      1.51514922 S
atom      -3.19514608      9.17169361      3.07250000 Mo
atom      -4.78771013     10.08126807      4.63399491 S
atom      -4.78771013     10.08126807      1.51100509 S
atom      -4.76790407     11.93299347      3.07250000 Mo
atom      -6.35755299     12.85081243      4.63548619 S
atom      -6.35755299     12.85081243      1.50951381 S
atom       4.78952178      0.95530264      3.07250000 Mo
atom       3.19356093      1.84419301      4.63592842 S
atom       3.19356093      1.84419301      1.50907158 S
atom       3.22179902      3.67077445      3.07250000 Mo
atom       1.61355273      4.58349915      4.63399001 S
atom       1.61355273      4.58349915      1.51100999 S
atom       1.60498546      6.41749764      3.07250000 Mo
atom       0.00000267      7.33690778      4.63059148 S
atom       0.00000267      7.33690778      1.51440852 S
atom      -0.00000106      9.18026067      3.07250000 Mo
atom      -1.59640911     10.10192597      4.63059396 S
atom      -1.59640911     10.10192597      1.51440604 S
atom      -1.59014900     11.95155292      3.07250000 Mo
atom      -3.17414171     12.87599276      4.63399141 S
atom      -3.17414171     12.87599276      1.51100859 S
atom       7.95000042      0.98013150      3.07250000 Mo
atom       6.40434524      1.94733489      4.63295388 S
atom       6.40434524      1.94733489      1.51204612 S
atom       6.51224305      3.76016089      3.07250000 Mo
atom       4.88837837      4.57319248      4.63294762 S
atom       4.88837837      4.57319248      1.51205238 S
atom       4.82359510      6.39537601      3.07250000 Mo
atom       3.20896959      7.32758424      4.62984024 S
atom       3.20896959      7.32758424      1.51515976 S
atom       3.19512573      9.17171104      3.07250000 Mo
atom       1.59640676     10.10193372      4.63058991 S
atom       1.59640676     10.10193372      1.51441009 S
atom       1.59015597     11.95157923      3.07250000 Mo
atom      -0.00000178     12.88557681      4.62985516 S
atom      -0.00000178     12.88557681      1.51514484 S
atom      11.11048378      0.95527753      3.07250000 Mo
atom       9.49566275      1.94733041      4.63295088 S
atom       9.49566275      1.94733041      1.51204912 S
atom       9.38772961      3.76016832      3.07250000 Mo
atom       7.94999313      6.25043694      3.07250000 Mo
atom       6.43402529      7.25035618      4.63295041 S
atom       6.43402529      7.25035618      1.51204959 S
atom       6.38226807      9.14486069      3.07250000 Mo
atom       4.78771138     10.08126925      4.63399309 S
atom       4.78771138     10.08126925      1.51100691 S
atom       4.76790696     11.93299860      3.07250000 Mo
atom       3.17414680     12.87597647      4.63401209 S
atom       3.17414680     12.87597647      1.51098791 S
atom      14.30386802      0.92193416      3.07250000 Mo
atom      12.70642906      1.84419272      4.63592777 S
atom      12.70642906      1.84419272      1.50907223 S
atom      12.67821622      3.67076640      3.07250000 Mo
atom      11.01163310      4.57319405      4.63294551 S
atom      11.01163310      4.57319405      1.51205449 S
atom      11.07642042      6.39537068      3.07250000 Mo
atom       9.46597414      7.25035016      4.63293443 S
atom       9.46597414      7.25035016      1.51206557 S
atom       9.51771058      9.14487538      3.07250000 Mo
atom       7.94999249     10.08263404      4.63593337 S
atom       7.94999249     10.08263404      1.50906663 S
atom       7.95001044     11.92716009      3.07250000 Mo
atom       6.35755964     12.85081214      4.63547342 S
atom       6.35755964     12.85081214      1.50952658 S
