# 
# This is the geometry file that corresponds to the current relaxation step.
# If you do not want this file to be written, set the "write_restart_geometry" flag to .false.
#  aims_uuid : 770C5829-D9DA-4CFC-A717-E291967B0AF3                                
# 
  set_vacuum_level        52.830000
lattice_vector     16.44037970     -0.00114591      0.00002432
lattice_vector     -8.22097504     14.23702869      0.00002609
lattice_vector      0.00000002      0.00000005    100.15657054
atom       0.00004650      0.94928883      2.66009400 W
atom       1.64413268      1.89805909      4.35327474 Se
atom       1.64422752      1.89838319      0.96716047 Se
atom      -1.64416158      3.79648626      2.66032204 W
atom      -0.00015000      4.74535849      4.35353375 Se
atom      -0.00003011      4.74546598      0.96735150 Se
atom      -3.28848892      6.64396318      2.66029867 W
atom      -1.64456937      7.59297108      4.35343050 Se
atom      -1.64431106      7.59284055      0.96729565 Se
atom      -4.93284436      9.49135446      2.66003421 W
atom      -3.28889251     10.44029213      4.35314755 Se
atom      -3.28867723     10.44029326      0.96708573 Se
atom      -6.57690567     12.33880220      2.65997915 W
atom      -4.93298284     13.28767763      4.35320494 Se
atom      -4.93283717     13.28783175      0.96696180 Se
atom       3.28812005      0.94892493      2.66019200 W
atom       4.93212353      1.89774679      4.35337347 Se
atom       4.93219384      1.89803679      0.96723996 Se
atom       1.64404953      3.79642224      2.66044658 W
atom       3.28805983      4.74513778      4.35375679 Se
atom       3.28816711      4.74549628      0.96755370 Se
atom      -0.00040142      6.64360226      2.66055717 W
atom       1.64351429      7.59243137      4.35385327 Se
atom       1.64374770      7.59251618      0.96771141 Se
atom      -1.64466767      9.49108424      2.66026670 W
atom      -0.00081993     10.43994921      4.35354863 Se
atom      -0.00037106     10.43996010      0.96744644 Se
atom      -3.28893083     12.33853975      2.66012560 W
atom      -1.64507729     13.28737416      4.35337063 Se
atom      -1.64471562     13.28738443      0.96720775 Se
atom       6.57603803      0.94857854      2.66027957 W
atom       8.21989256      1.89753218      4.35348052 Se
atom       8.22016907      1.89757681      0.96738675 Se
atom       4.93208911      3.79610440      2.66052764 W
atom       6.57608651      4.74509516      4.35358437 Se
atom       6.57598186      4.74514328      0.96737788 Se
atom       3.28780079      6.64352592      2.66084395 W
atom       4.93190997      7.59245283      4.35383640 Se
atom       4.93161083      7.59268012      0.96766230 Se
atom       1.64344838      9.49070384      2.66079326 W
atom       3.28741510     10.43960198      4.35404758 Se
atom       3.28741885     10.43977742      0.96783256 Se
atom      -0.00086724     12.33817696      2.66053420 W
atom       1.64299376     13.28706002      4.35384928 Se
atom       1.64334498     13.28698896      0.96768005 Se
atom       9.86404370      0.94827215      2.66061427 W
atom      11.50808956      1.89731123      4.35361223 Se
atom      11.50796873      1.89723257      0.96741123 Se
atom       8.21997810      3.79584121      2.66044894 W
atom       9.86408037      4.74480331      4.35347435 Se
atom       9.86400711      4.74474255      0.96734356 Se
atom       6.57575527      6.64331550      2.66049807 W
atom       8.21989271      7.59228501      4.35338604 Se
atom       8.21973577      7.59209626      0.96725693 Se
atom       4.93155716      9.49076478      2.66082273 W
atom       6.57588184     10.43981149      4.35352962 Se
atom       6.57530935     10.43968835      0.96737548 Se
atom       3.28721063     12.33790250      2.66094528 W
atom       4.93149424     13.28704894      4.35368009 Se
atom       4.93102153     13.28689873      0.96763872 Se
atom      13.15211951      0.94820843      2.66049020 W
atom      14.79642633      1.89712647      4.35335301 Se
atom      14.79610675      1.89714544      0.96722274 Se
atom      11.50800760      3.79549729      2.66041494 W
atom      13.15209093      4.74454530      4.35335558 Se
atom      13.15209359      4.74446824      0.96734565 Se
atom       9.86389645      6.64302654      2.66033914 W
atom      11.50786956      7.59212983      4.35335968 Se
atom      11.50786971      7.59183793      0.96712517 Se
atom       8.21957400      9.49046418      2.66019029 W
atom       9.86358834     10.43949356      4.35313416 Se
atom       9.86347708     10.43934961      0.96691817 Se
atom       6.57545172     12.33796399      2.66038824 W
atom       8.21965548     13.28700765      4.35319351 Se
atom       8.21936128     13.28693282      0.96704149 Se
# 
# What follows is the current estimated Hessian matrix constructed by the BFGS algorithm.
# This is NOT the true Hessian matrix of the system.
# If you do not want this information here, switch it off using the "hessian_to_restart_geometry" keyword.
# 
trust_radius             0.0001905599
hessian_file
