# 
# This is the geometry file that corresponds to the current relaxation step.
# If you do not want this file to be written, set the "write_restart_geometry" flag to .false.
#  aims_uuid : 02499D64-B659-491D-AADE-10A16F305055                                
# 
  set_vacuum_level        52.830000
lattice_vector     16.44037970     -0.00114591      0.00002432
lattice_vector     -8.22097504     14.23702869      0.00002609
lattice_vector      0.00000002      0.00000005    100.15657054
atom      -0.00121457      0.94975082      2.66043170 W
atom       1.64453978      1.89779149      4.34817865 Se
atom       1.64453077      1.89777474      0.97263012 Se
atom      -1.64549093      3.79735242      2.66042976 W
atom       0.00039545      4.74511599      4.34816617 Se
atom       0.00037973      4.74511987      0.97263774 Se
atom      -3.28972026      6.64481590      2.66042360 W
atom      -1.64388702      7.59251092      4.34817098 Se
atom      -1.64388052      7.59250913      0.97262502 Se
atom      -4.93376341      9.49182701      2.66044084 W
atom      -3.28811652     10.43996109      4.34818488 Se
atom      -3.28811941     10.43996185      0.97262100 Se
atom      -6.57796717     12.33935458      2.66041733 W
atom      -4.93224646     13.28741107      4.34817666 Se
atom      -4.93223671     13.28741179      0.97265521 Se
atom       3.28674420      0.94952949      2.66041078 W
atom       4.93263563      1.89755951      4.34814654 Se
atom       4.93264303      1.89754736      0.97264486 Se
atom       1.64272580      3.79694229      2.66037033 W
atom       3.28848196      4.74499667      4.34815912 Se
atom       3.28849027      4.74501331      0.97265447 Se
atom      -0.00169258      6.64433684      2.66043858 W
atom       1.64414055      7.59237362      4.34815313 Se
atom       1.64414360      7.59236608      0.97265155 Se
atom      -1.64564418      9.49175016      2.66045399 W
atom      -0.00012457     10.43972546      4.34812998 Se
atom      -0.00012670     10.43972225      0.97269818 Se
atom      -3.29001101     12.33901606      2.66046162 W
atom      -1.64421694     13.28718623      4.34814793 Se
atom      -1.64422818     13.28719351      0.97269634 Se
atom       6.57503539      0.94931748      2.66045732 W
atom       8.22081276      1.89730513      4.34819485 Se
atom       8.22079444      1.89731326      0.97260261 Se
atom       4.93066824      3.79660915      2.66042493 W
atom       6.57658560      4.74467977      4.34817929 Se
atom       6.57659190      4.74466938      0.97261345 Se
atom       3.28630036      6.64412400      2.66046695 W
atom       4.93237687      7.59205599      4.34821308 Se
atom       4.93236706      7.59205185      0.97259820 Se
atom       1.64287376      9.49155899      2.66044768 W
atom       3.28812686     10.43958248      4.34821969 Se
atom       3.28813024     10.43958773      0.97259864 Se
atom      -0.00167627     12.33888060      2.66041449 W
atom       1.64395914     13.28693839      4.34824036 Se
atom       1.64396587     13.28692853      0.97263400 Se
atom       9.86271232      0.94904434      2.66038848 W
atom      11.50878886      1.89703155      4.34813745 Se
atom      11.50879161      1.89703143      0.97268759 Se
atom       8.21843311      3.79667065      2.66046906 W
atom       9.86462406      4.74439948      4.34814774 Se
atom       9.86461461      4.74439140      0.97265899 Se
atom       6.57441111      6.64413490      2.66044019 W
atom       8.22038200      7.59177213      4.34819302 Se
atom       8.22038216      7.59176651      0.97264044 Se
atom       4.93022765      9.49096434      2.66045419 W
atom       6.57612855     10.43932822      4.34814298 Se
atom       6.57611541     10.43933120      0.97270523 Se
atom       3.28587379     12.33869075      2.66045489 W
atom       4.93198577     13.28662579      4.34817096 Se
atom       4.93197735     13.28661573      0.97268756 Se
atom      13.15100846      0.94875591      2.66039898 W
atom      14.79686722      1.89682514      4.34813847 Se
atom      14.79687845      1.89682798      0.97268830 Se
atom      11.50680503      3.79637574      2.66043220 W
atom      13.15271083      4.74421571      4.34815814 Se
atom      13.15271987      4.74420908      0.97266513 Se
atom       9.86273627      6.64371833      2.66043870 W
atom      11.50845425      7.59159016      4.34821300 Se
atom      11.50845176      7.59159857      0.97263178 Se
atom       8.21846339      9.49080591      2.66041061 W
atom       9.86420663     10.43908149      4.34815987 Se
atom       9.86421902     10.43907819      0.97270786 Se
atom       6.57435006     12.33851320      2.66044610 W
atom       8.22005078     13.28647577      4.34820075 Se
atom       8.22004866     13.28648502      0.97266937 Se
# 
# What follows is the current estimated Hessian matrix constructed by the BFGS algorithm.
# This is NOT the true Hessian matrix of the system.
# If you do not want this information here, switch it off using the "hessian_to_restart_geometry" keyword.
# 
trust_radius             0.2000000030
hessian_file
