# 
# This is the geometry file that corresponds to the current relaxation step.
# If you do not want this file to be written, set the "write_restart_geometry" flag to .false.
#  aims_uuid : EB22820B-E71E-4CE3-A17E-FDD55A53FB0D                                
# 
  set_vacuum_level        52.307600
lattice_vector     16.44347560      0.00000000      0.00000000
lattice_vector     -8.22357185     14.23911350      0.00000000
lattice_vector      0.00000000      0.00000000     99.63748923
atom       0.04536022      0.98876249      2.63792158 W
atom       1.70417560      1.97711365      4.29199109 Se
atom       1.68218745      1.86886789      0.90863208 Se
atom      -1.57693220      3.86328143      2.60341525 W
atom       0.12769626      4.84235964      4.21782725 Se
atom       0.05358284      4.80142144      0.87582604 Se
atom      -3.25039965      6.70222263      2.63933284 W
atom      -1.55738771      7.64114317      4.29184618 Se
atom      -1.66264305      7.67636110      0.91322437 Se
atom      -4.88996936      9.54476624      2.66478629 W
atom      -3.23283055     10.49301789      4.33756595 Se
atom      -3.26459700     10.49876638      0.95707748 Se
atom      -6.53346483     12.38772119      2.66436710 W
atom      -4.88267521     13.34646528      4.33700925 Se
atom      -4.89350135     13.31372628      0.95578484 Se
atom       3.33900688      0.98349677      2.62311755 W
atom       4.97552707      1.91607198      4.33132307 Se
atom       4.99660680      1.91995696      0.93807098 Se
atom       1.73071133      3.81040415      2.52054567 W
atom       3.36494542      4.92011400      4.13118721 Se
atom       3.34899381      4.66795980      0.83993784 Se
atom       0.04909126      6.74861956      2.52150646 W
atom       1.84198175      7.61987197      4.13504312 Se
atom       1.60950776      7.70812863      0.85528624 Se
atom      -1.60501709      9.55465487      2.62546840 W
atom       0.01855621     10.50955230      4.33413907 Se
atom       0.03799577     10.51650291      0.94037772 Se
atom      -3.24280805     12.39033001      2.64956563 W
atom      -1.60065919     13.33894770      4.34259507 Se
atom      -1.59784298     13.33990748      0.95678501 Se
atom       6.63314635      0.99012205      2.64974709 W
atom       8.26703583      1.94542726      4.35085553 Se
atom       8.27174363      1.97034630      0.97485594 Se
atom       4.97262828      3.79977036      2.64328174 W
atom       6.59548385      4.77390872      4.38662693 Se
atom       6.59513954      4.85249883      1.02605201 Se
atom       5.12038995      7.73293932      4.59353213 Se
atom       4.75117378      7.53432541      1.30444238 Se
atom       1.65823734      9.57276743      2.65334115 W
atom       3.30654471     10.49601813      4.38800978 Se
atom       3.36396439     10.46116856      1.01734789 Se
atom       0.04372477     12.40503052      2.64933424 W
atom       1.68208545     13.35011087      4.35076182 Se
atom       1.70534825     13.34328887      0.97345069 Se
atom       9.91495339      1.00693818      2.65923094 W
atom      11.56511401      1.95858706      4.34463406 Se
atom      11.55863016      1.95494542      0.97002510 Se
atom       8.25924825      3.85960879      2.68201668 W
atom       9.92453906      4.79336956      4.36333009 Se
atom       9.89832590      4.80881668      0.98655492 Se
atom       6.60802549      6.72345289      2.78743315 W
atom       8.31556081      7.65313946      4.41468683 Se
atom       8.22460050      7.64478109      1.04803323 Se
atom       4.99022237      9.54249090      2.76843252 W
atom       6.64793033     10.53139085      4.41402747 Se
atom       6.60723123     10.46887957      1.04174802 Se
atom       3.33657587     12.39034101      2.68060918 W
atom       4.97902615     13.36206282      4.36389852 Se
atom       4.98048228     13.33150609      0.98634731 Se
atom      13.20807782      1.00785516      2.65630278 W
atom      14.86589344      1.98271274      4.32016960 Se
atom      14.84401473      1.93868237      0.94624317 Se
atom      11.56196996      3.85591506      2.65638053 W
atom      13.23718845      4.80102138      4.32095767 Se
atom      13.18811726      4.80572970      0.94657087 Se
atom       9.92129992      6.69764116      2.68632966 W
atom      11.58179087      7.64835897      4.35663625 Se
atom      11.52814809      7.65179100      0.97071727 Se
atom       8.27117769      9.54858889      2.72212040 W
atom       9.93572075     10.50717131      4.37476970 Se
atom       9.88819574     10.47888247      0.99185284 Se
atom       6.62596031     12.40269546      2.68733351 W
atom       8.28075451     13.36119028      4.35672311 Se
atom       8.25656029     13.31244529      0.97028868 Se
# 
# What follows is the current estimated Hessian matrix constructed by the BFGS algorithm.
# This is NOT the true Hessian matrix of the system.
# If you do not want this information here, switch it off using the "hessian_to_restart_geometry" keyword.
# 
trust_radius             0.0007868819
hessian_file
