# 
# This is the geometry file that corresponds to the current relaxation step.
# If you do not want this file to be written, set the "write_restart_geometry" flag to .false.
#  aims_uuid : 2987B58A-1A18-4A12-ABB0-7291E1926EBE                                
# 
  set_vacuum_level        52.600000
lattice_vector     15.83905019     -0.00078618      0.00218770
lattice_vector     -7.92011750     13.71653974      0.00218443
lattice_vector     -0.00002710     -0.00004826     99.87375975
atom      -0.00824696      0.90209639      2.59689338 W
atom       1.57845117      1.80023353      4.16973709 S
atom       1.57868506      1.80057461      1.02488053 S
atom      -1.56988731      3.66594256      2.59734509 W
atom       0.03039830      4.58976138      4.15690914 S
atom       0.03059943      4.59018139      1.03866742 S
atom      -3.18309360      6.40000254      2.59777869 W
atom      -1.61184865      7.32479240      4.17061110 S
atom      -1.61157216      7.32517621      1.02586993 S
atom      -4.75215074      9.14763104      2.59825761 W
atom      -3.17649157     10.06313899      4.17932046 S
atom      -3.17628972     10.06349750      1.01804728 S
atom      -6.33327746     11.88596399      2.59868954 W
atom      -4.75236622     12.79255782      4.17977389 S
atom      -4.75216423     12.79289657      1.01845251 S
atom       3.16786022      0.89280231      2.59734570 W
atom       4.75701936      1.80001085      4.17015269 S
atom       4.75723987      1.80030812      1.02534977 S
atom       1.62545777      3.63485117      2.59771453 W
atom       3.16774153      4.51655251      4.16935654 S
atom       3.16793894      4.51686581      1.02686002 S
atom       0.00073558      6.44865127      2.59825722 W
atom       1.53549935      7.34272833      4.17005539 S
atom       1.53570635      7.34307477      1.02733010 S
atom      -1.60276244      9.15500047      2.59868479 W
atom      -0.02258062     10.07730075      4.17158803 S
atom      -0.02238880     10.07772934      1.02667198 S
atom      -3.17118214     11.88585541      2.59911931 W
atom      -1.58858847     12.79936400      4.17945526 S
atom      -1.58835151     12.79970547      1.01967762 S
atom       6.34396690      0.90162506      2.59778811 W
atom       7.91862095      1.83295736      4.17358883 S
atom       7.91883434      1.83332520      1.02290034 S
atom       4.71002284      3.63466611      2.59814775 W
atom       6.30483729      4.58911074      4.15782817 S
atom       6.30509224      4.58955276      1.03953181 S
atom       4.79916741      7.34222392      4.17061205 S
atom       4.79933762      7.34255968      1.02789575 S
atom       1.54263968      9.11925609      2.59911646 W
atom       3.16709054     10.02273073      4.15856030 S
atom       3.16734579     10.02311757      1.04060801 S
atom      -0.00722147     11.90077531      2.59959152 W
atom       1.58686414     12.79833031      4.17538642 S
atom       1.58707240     12.79866191      1.02464662 S
atom       9.50328957      0.91382292      2.59825341 W
atom      11.08723595      1.82813287      4.17369340 S
atom      11.08744044      1.82849330      1.02368051 S
atom       7.90549462      3.66529877      2.59868656 W
atom       9.49863247      4.56967792      4.17456469 S
atom       9.49884327      4.57004462      1.02368172 S
atom       6.33418344      6.44797780      2.59921473 W
atom       7.94651955      7.32410047      4.17196761 S
atom       7.94666482      7.32445152      1.02725829 S
atom       4.79184022      9.11895233      2.59966286 W
atom       6.35693332     10.07679501      4.17250520 S
atom       6.35710427     10.07717023      1.02760918 S
atom       3.16728874     11.87117871      2.60003501 W
atom       4.74738648     12.79816567      4.17591577 S
atom       4.74759018     12.79850125      1.02499102 S
atom      12.67139278      0.91345489      2.59869236 W
atom      14.25572190      1.83275286      4.17442200 S
atom      14.25589832      1.83310242      1.02378334 S
atom      11.08704968      3.65733782      2.59912926 W
atom      12.67551786      4.56954995      4.17487079 S
atom      12.67569538      4.56989635      1.02420872 S
atom       9.51817809      6.39929062      2.59957776 W
atom      11.08688558      7.31917844      4.17986371 S
atom      11.08706129      7.31956480      1.02011021 S
atom       7.93762879      9.15442527      2.60003172 W
atom       9.51089624     10.06242407      4.18110698 S
atom       9.51108488     10.06277535      1.01977759 S
atom       6.34170907     11.90030060      2.60048017 W
atom       7.92280027     12.79891160      4.18067824 S
atom       7.92298094     12.79922553      1.02106004 S
# 
# What follows is the current estimated Hessian matrix constructed by the BFGS algorithm.
# This is NOT the true Hessian matrix of the system.
# If you do not want this information here, switch it off using the "hessian_to_restart_geometry" keyword.
# 
trust_radius             0.0194400455
hessian_file
