#
# distorted structure-file for based on eigenmodes
# vibration     2 :   -84.267 1/cm
#
lattice_vector   15.90000000    0.00000000    0.00000000
lattice_vector   -7.95000000   13.76980392    0.00000000
lattice_vector    0.00000000    0.00000000  100.00000000
atom   -0.00018280    0.91634070    2.52341265   W
atom    1.58649154    1.82196359    4.15226727   S
atom    1.59511362    1.84922899    1.01212175   S
atom   -1.58761076    3.67244037    2.59775856   W
atom    0.00136613    4.58718617    4.17148252   S
atom    0.00062604    4.59273468    1.02967659   S
atom   -3.17919773    6.42583999    2.59448413   W
atom   -1.59227733    7.34700682    4.16945669   S
atom   -1.58714314    7.34069858    1.02775157   S
atom   -4.76989656    9.18046518    2.51733428   W
atom   -3.19317281   10.10361942    4.14750779   S
atom   -3.16679669   10.09258830    1.00562665   S
atom   -6.35874129   11.93317885    1.65878558   W
atom   -4.81656632   12.82152933    4.08608293   S
atom   -4.72297741   12.88354002    0.94543558   S
atom    3.18884380    0.92270011    2.55271027   W
atom    4.75860999    1.82425462    4.23667674   S
atom    4.78197704    1.84686372    1.03266079   S
atom    1.59265254    3.67164102    2.59453329   W
atom    3.17582562    4.58903311    4.17569384   S
atom    3.18672748    4.58929608    1.03518343   S
atom    0.00034808    6.42613205    2.60370264   W
atom    1.58975456    7.34438603    4.17241021   S
atom    1.59134857    7.34341368    1.03114859   S
atom   -1.58987972    9.17981938    2.58526049   W
atom   -0.00406054   10.09655245    4.17054069   S
atom    0.00410815   10.09881647    1.02901622   S
atom   -3.18065296   11.93412330    2.52744763   W
atom   -1.60525088   12.84343353    4.16483690   S
atom   -1.57563264   12.86135620    1.02434747   S
atom    6.35208419    0.92199160    2.62114044   W
atom    7.95026769    1.83494279    4.17746818   S
atom    7.94884959    1.83503358    1.03706621   S
atom    4.77103002    3.66088791    2.63187549   W
atom    6.36278906    4.59253153    4.17702434   S
atom    6.35552522    4.58501336    1.03689165   S
atom    3.18188921    6.42501133    2.60716187   W
atom    4.77263422    7.34780317    4.17096106   S
atom    4.76807303    7.33920469    1.02913411   S
atom    1.59075384    9.18031519    2.60364525   W
atom    3.18407460   10.09790012    4.17011441   S
atom    3.17613796   10.09854711    1.02854316   S
atom   -0.00099044   11.93373348    2.60279720   W
atom    1.59072718   12.84941919    4.17429399   S
atom    1.58857661   12.85454517    1.03300355   S
atom    9.54171875    0.91817585    2.61309723   W
atom   11.13583421    1.83512089    4.17241097   S
atom   11.12529983    1.83665814    1.03082242   S
atom    7.94981270    3.67059780    2.61334219   W
atom    9.54114669    4.59629048    4.17134401   S
atom    9.53803571    4.58386333    1.03069663   S
atom    6.36018140    6.42424056    2.60166979   W
atom    7.95497788    7.35984246    4.15915974   S
atom    7.94503617    7.32694151    1.01746339   S
atom    4.77000768    9.17929312    2.58532188   W
atom    6.37283830   10.10507802    4.14278888   S
atom    6.34385616   10.09012004    1.00494909   S
atom    3.18002918   11.93486654    2.59902467   W
atom    4.78644924   12.84714375    4.15926306   S
atom    4.75482003   12.85611882    1.01770168   S
atom   12.72185186    0.91727459    2.58768682   W
atom   14.32130123    1.82516262    4.15970757   S
atom   14.29982353    1.84692066    1.01803290   S
atom   11.12882375    3.67157421    2.60536984   W
atom   12.72088860    4.59099154    4.17119781   S
atom   12.71951471    4.58841566    1.03020737   S
atom    9.54079841    6.42625527    2.58458992   W
atom   11.12623659    7.35943930    4.15788201   S
atom   11.13435056    7.32856226    1.01646366   S
atom    7.94881504    9.17829014    2.51843076   W
atom    9.53991494   10.14923258    4.08042450   S
atom    9.53992785   10.04573565    0.93890597   S
atom    6.36213816   11.93348926    2.51915708   W
atom    7.99552697   12.82454734    4.08180137   S
atom    7.90581980   12.87838750    0.93976703   S
