#
# temporary structure-file for finite-difference calculation of forces
# displacement   0.0025 of \# atom    59 direction     2
#
lattice_vector   16.60000000    0.00000000    0.00000000
lattice_vector   -8.30000000   14.37602170    0.00000000
lattice_vector    0.00000000    0.00000000  100.00000000
atom    0.01772782    0.96973243    2.67264465  Mo
atom    1.68127429    1.89181033    4.35794350  Se
atom    1.69984660    1.96143442    1.02914029  Se
atom   -1.62793103    3.86506183    2.68911360  Mo
atom    0.03017102    4.90428067    4.34250717  Se
atom    0.07946200    4.86591290    1.07151907  Se
atom   -3.36647914    6.71428236    2.66261553  Mo
atom   -1.76319744    7.76348103    4.33440254  Se
atom   -1.75060250    7.70729268    0.97179775  Se
atom   -4.97809483    9.58317061    2.65811501  Mo
atom   -3.25559244   10.55698115    4.29960092  Se
atom   -3.33463450   10.52997799    0.95982310  Se
atom   -6.63108624   12.45671839    2.66421056  Mo
atom   -4.94460177   13.39087545    4.31924720  Se
atom   -4.97692265   13.42549481    0.99639458  Se
atom    3.34506755    0.95139149    2.68205697  Mo
atom    5.00987599    1.88425440    4.35918301  Se
atom    5.01930119    1.87085410    1.01086786  Se
atom    1.72316465    3.84024658    2.74678432  Mo
atom    3.31321291    4.84882356    4.31211433  Se
atom    3.46561359    4.89752174    1.16654126  Se
atom   -0.11805835    6.86712561    2.67132079  Mo
atom    1.21986005    8.15382000    4.51263813  Se
atom    1.62599791    7.71592240    1.21289234  Se
atom   -1.64000263    9.63334944    2.58901190  Mo
atom   -0.04869084   10.51945210    0.84471422  Se
atom   -3.28964919   12.44286879    2.62713222  Mo
atom   -1.58974871   13.29919545    4.29052658  Se
atom   -1.63564236   13.41295758    0.95145119  Se
atom    6.67183187    0.91250628    2.67821203  Mo
atom    8.33012384    1.86945148    4.34754491  Se
atom    8.32232750    1.88443741    1.01722813  Se
atom    5.05954224    3.78181819    2.66174063  Mo
atom    6.67441901    4.75872560    4.36182687  Se
atom    6.69063825    4.76156101    0.99909579  Se
atom    4.88487095    7.49745217    4.12109194  Se
atom    5.00668960    7.67580769    0.96397887  Se
atom    1.43492185    9.73436713    2.71392857  Mo
atom    3.29450675   10.48139813    4.28347502  Se
atom    3.26231708   10.47211371    1.00733458  Se
atom   -0.00094354   12.35764199    2.55504246  Mo
atom    1.61715053   13.28529206    4.29388412  Se
atom    1.65131537   13.39588888    0.95576708  Se
atom    9.96970986    0.90669591    2.66929016  Mo
atom   11.62930951    1.87927551    4.33767297  Se
atom   11.63226296    1.89521173    1.01354222  Se
atom    8.32986866    3.80056684    2.68310539  Mo
atom    9.98487473    4.77915147    4.33909825  Se
atom    9.98388802    4.76288743    1.01004443  Se
atom    6.70214477    6.65905323    2.69051527  Mo
atom    8.32639230    7.66503575    4.33676289  Se
atom    8.29286058    7.65333594    0.98541329  Se
atom    5.01866471    9.54170291    2.59390764  Mo
atom    6.62357559   10.50453883    4.31575237  Se
atom    6.67167677   10.55326509    0.97399997  Se
atom    3.30151545   12.42348936    2.63088345  Mo
atom    4.95914349   13.38654711    4.31663152  Se
atom    4.98739424   13.40692680    0.99749896  Se
atom   13.29839286    0.94793821    2.67176876  Mo
atom   14.95929299    1.92936800    4.33937620  Se
atom   14.96317709    1.94390276    1.01739140  Se
atom   11.64323962    3.81505767    2.67849733  Mo
atom   13.29408646    4.79979117    4.34424041  Se
atom   13.30388356    4.78048913    1.01060315  Se
atom    9.96158372    6.69692844    2.66120147  Mo
atom   11.59425739    7.67570866    4.33692270  Se
atom   11.59290016    7.66590432    0.98857494  Se
atom    8.30322634    9.57544499    2.65569661  Mo
atom    9.96750622   10.54114452    4.32685046  Se
atom    9.96162377   10.54269539    0.99502090  Se
atom    6.64311106   12.44744679    2.66474943  Mo
atom    8.30396306   13.41325113    4.32840999  Se
atom    8.30781967   13.42943038    1.00682439  Se
