# 
# This is the geometry file that corresponds to the current relaxation step.
# If you do not want this file to be written, set the "write_restart_geometry" flag to .false.
#  aims_uuid : 09DC4130-3866-4320-A76F-EA1DBFB501FD                                
# 
  set_vacuum_level        52.466915
lattice_vector     15.67253790      0.00000000      0.00000000
lattice_vector     -7.83631930     13.57134925      0.00000000
lattice_vector      0.00000000      0.00000000     99.83654525
atom_frac       0.03363041      0.06724857      0.02607844 W
atom_frac       0.16789630      0.13579250      0.04154451 S
atom_frac       0.16660250      0.13320469      0.01035768 S
atom_frac       0.03450548      0.26793564      0.02608922 W
atom_frac       0.17275823      0.33922390      0.04128834 S
atom_frac       0.16642813      0.33467287      0.01006138 S
atom_frac       0.03450745      0.46657501      0.02608862 W
atom_frac       0.17275760      0.53353091      0.04128758 S
atom_frac       0.16643235      0.53174930      0.01006101 S
atom_frac       0.03363306      0.66638815      0.02607785 W
atom_frac       0.16789884      0.73210068      0.04154386 S
atom_frac       0.16660580      0.73339642      0.01035710 S
atom_frac       0.03333476      0.86667008      0.02607861 W
atom_frac       0.16686339      0.93342959      0.04168163 S
atom_frac       0.16694581      0.93347241      0.01048155 S
atom_frac       0.23361802      0.06724859      0.02607845 W
atom_frac       0.36642687      0.13447819      0.04177342 S
atom_frac       0.36732551      0.13376394      0.01054869 S
atom_frac       0.23441288      0.26882568      0.02569518 W
atom_frac       0.36646642      0.33922401      0.04128836 S
atom_frac       0.36824570      0.33467337      0.01006147 S
atom_frac       0.23903460      0.46951581      0.02521255 W
atom_frac       0.36666372      0.53332696      0.00909583 S
atom_frac       0.23441701      0.66558908      0.02569451 W
atom_frac       0.36646852      0.72723765      0.04128763 S
atom_frac       0.36824933      0.73356796      0.01006067 S
atom_frac       0.23361894      0.86637226      0.02607811 W
atom_frac       0.36642794      0.93194419      0.04177301 S
atom_frac       0.36732707      0.93355952      0.01054843 S
atom_frac       0.43323966      0.06662083      0.02625669 W
atom_frac       0.56627549      0.13313759      0.04194089 S
atom_frac       0.56687407      0.13343683      0.01070115 S
atom_frac       0.43343048      0.26793591      0.02608926 W
atom_frac       0.56591749      0.33408598      0.04183319 S
atom_frac       0.56689372      0.33310282      0.01057876 S
atom_frac       0.43048120      0.46951566      0.02521262 W
atom_frac       0.56077392      0.53353098      0.04128761 S
atom_frac       0.56531716      0.53174917      0.01006105 S
atom_frac       0.43048297      0.66096630      0.02521208 W
atom_frac       0.56076888      0.72723778      0.04128767 S
atom_frac       0.56531853      0.73356825      0.01006060 S
atom_frac       0.43343212      0.86549580      0.02608872 W
atom_frac       0.56591537      0.93183098      0.04183308 S
atom_frac       0.56689526      0.93379087      0.01057851 S
atom_frac       0.63320652      0.06641311      0.02631894 W
atom_frac       0.76686249      0.13313788      0.04194085 S
atom_frac       0.76656296      0.13343707      0.01070114 S
atom_frac       0.63320687      0.26679891      0.02631897 W
atom_frac       0.76686418      0.33372805      0.04194062 S
atom_frac       0.76656287      0.33312568      0.01070105 S
atom_frac       0.63206767      0.46657507      0.02608864 W
atom_frac       0.76552113      0.53357494      0.04177278 S
atom_frac       0.76623441      0.53267535      0.01054804 S
atom_frac       0.63117176      0.66558940      0.02569447 W
atom_frac       0.76420158      0.73210081      0.04154379 S
atom_frac       0.76679030      0.73339642      0.01035709 S
atom_frac       0.63206293      0.86549584      0.02608869 W
atom_frac       0.76551603      0.93194423      0.04177299 S
atom_frac       0.76623212      0.93355953      0.01054838 S
atom_frac       0.83338080      0.06662095      0.02625665 W
atom_frac       0.96805144      0.13447815      0.04177337 S
atom_frac       0.96643854      0.13376380      0.01054867 S
atom_frac       0.83359206      0.26679898      0.02631894 W
atom_frac       0.96816907      0.33408599      0.04183315 S
atom_frac       0.96620970      0.33310293      0.01057874 S
atom_frac       0.83338427      0.46676819      0.02625617 W
atom_frac       0.96805433      0.53357471      0.04177281 S
atom_frac       0.96644142      0.53267526      0.01054801 S
atom_frac       0.83275443      0.66638818      0.02607782 W
atom_frac       0.96656802      0.73313600      0.04168133 S
atom_frac       0.96652834      0.73305652      0.01048119 S
atom_frac       0.83275245      0.86637236      0.02607807 W
atom_frac       0.96656589      0.93342958      0.04168162 S
atom_frac       0.96652644      0.93347237      0.01048151 S
# 
# What follows is the current estimated Hessian matrix constructed by the BFGS algorithm.
# This is NOT the true Hessian matrix of the system.
# If you do not want this information here, switch it off using the "hessian_to_restart_geometry" keyword.
# 
trust_radius             0.0001650802
hessian_file
