#
lattice_vector      16.238659     -0.000     -0.00
lattice_vector      -8.11989635    14.06215255     -0.00
lattice_vector      0.0000      0.0000     99.93951163
atom_frac 0.03176441 0.06607251 0.02642161 Mo
atom_frac 0.16340074 0.12988396 0.04283447 Se
atom_frac 0.16343733 0.12993193 0.01001300 Se
atom_frac 0.03366929 0.26970800 0.02642323 Mo
atom_frac 0.17283261 0.34072069 0.04220788 Se
atom_frac 0.17285990 0.34071939 0.01064405 Se
atom_frac 0.03464211 0.46772322 0.02642188 Mo
atom_frac 0.16798312 0.53538090 0.04328000 Se
atom_frac 0.16799643 0.53537805 0.00956623 Se
atom_frac 0.03377657 0.66708147 0.02642161 Mo
atom_frac 0.16651040 0.73348743 0.04274491 Se
atom_frac 0.16651629 0.73348902 0.01009941 Se
atom_frac 0.03316620 0.86683269 0.02642189 Mo
atom_frac 0.16557533 0.93197010 0.04279226 Se
atom_frac 0.16557723 0.93197356 0.01005248 Se
atom_frac 0.23126501 0.06391493 0.02642286 Mo
atom_frac 0.36378377 0.12826843 0.04285612 Se
atom_frac 0.36377295 0.12823325 0.00998776 Se
atom_frac 0.22972635 0.26101995 0.02642965 Mo
atom_frac 0.36015235 0.32278452 0.04283349 Se
atom_frac 0.36024514 0.32287153 0.01002552 Se
atom_frac 0.23808840 0.48352511 0.02642420 Mo
atom_frac 0.39290112 0.50710133 0.02642284 Se
atom_frac 0.23352728 0.66648204 0.02642262 Mo
atom_frac 0.36463447 0.73202142 0.04327880 Se
atom_frac 0.36462651 0.73202104 0.00956528 Se
atom_frac 0.23292025 0.86622377 0.02642243 Mo
atom_frac 0.36623114 0.93233246 0.04274619 Se
atom_frac 0.36622854 0.93232932 0.01009820 Se
atom_frac 0.43264254 0.06508344 0.02642221 Mo
atom_frac 0.56607670 0.13474533 0.04273904 Se
atom_frac 0.56606807 0.13473648 0.01010311 Se
atom_frac 0.42515005 0.25908486 0.02641746 Mo
atom_frac 0.56334037 0.33664241 0.04235359 Se
atom_frac 0.56335318 0.33665802 0.01048665 Se
atom_frac 0.57712310 0.53974352 0.04281721 Se
atom_frac 0.57720200 0.53984439 0.01000940 Se
atom_frac 0.41647801 0.66191580 0.02642149 Mo
atom_frac 0.55928280 0.72714313 0.04220071 Se
atom_frac 0.55927108 0.72716262 0.01063679 Se
atom_frac 0.43228273 0.86536289 0.02642198 Mo
atom_frac 0.56577271 0.93354787 0.04273574 Se
atom_frac 0.56576610 0.93354723 0.01010687 Se
atom_frac 0.63204376 0.06721540 0.02642113 Mo
atom_frac 0.76595234 0.13405267 0.04267395 Se
atom_frac 0.76595268 0.13404835 0.01016791 Se
atom_frac 0.63196073 0.26803826 0.02641994 Mo
atom_frac 0.76525682 0.33392988 0.04273747 Se
atom_frac 0.76525947 0.33392599 0.01010184 Se
atom_frac 0.64091603 0.47485176 0.02642324 Mo
atom_frac 0.77175907 0.53622328 0.04285444 Se
atom_frac 0.77173553 0.53622434 0.00998507 Se
atom_frac 0.63897237 0.67026668 0.02641421 Mo
atom_frac 0.77006338 0.73655779 0.04283063 Se
atom_frac 0.77010799 0.73659729 0.01000912 Se
atom_frac 0.63029040 0.86633091 0.02642079 Mo
atom_frac 0.76450478 0.93306460 0.04267713 Se
atom_frac 0.76451041 0.93306531 0.01016620 Se
atom_frac 0.83269221 0.06730959 0.02642142 Mo
atom_frac 0.96693281 0.13548636 0.04267754 Se
atom_frac 0.96693972 0.13549505 0.01016641 Se
atom_frac 0.83278771 0.26795902 0.02642058 Mo
atom_frac 0.96644935 0.33423437 0.04273607 Se
atom_frac 0.96646425 0.33423523 0.01010742 Se
atom_frac 0.83491086 0.46735951 0.02641932 Mo
atom_frac 0.96766135 0.53376873 0.04274460 Se
atom_frac 0.96767467 0.53377411 0.01009706 Se
atom_frac 0.83608075 0.66873302 0.02642000 Mo
atom_frac 0.96802100 0.73442019 0.04279106 Se
atom_frac 0.96803153 0.73442615 0.01005139 Se
atom_frac 0.83392252 0.86823215 0.02642199 Mo
atom_frac 0.96623675 0.93375420 0.04277883 Se
atom_frac 0.96624126 0.93375859 0.01006512 Se
