# 
# This is the geometry file that corresponds to the current relaxation step.
# If you do not want this file to be written, set the "write_restart_geometry" flag to .false.
#  aims_uuid : 83A097A0-6A23-43FA-AA30-C68A22C560B6                                
# 
  set_vacuum_level        52.979670
lattice_vector     16.44347560      0.00000000      0.00000000
lattice_vector     -8.22357185     14.23911350      0.00000000
lattice_vector      0.00000000      0.00000000     99.63748923
atom       0.03821072      1.02064776      2.72223659 W
atom       1.66991258      1.93726652      4.44889223 Se
atom       1.70340866      2.00414165      1.07667786 Se
atom      -1.59617836      3.87524151      2.71597649 W
atom       0.02914212      4.84799146      4.42383964 Se
atom       0.08814367      4.81677100      1.05317914 Se
atom      -3.25559626      6.71936942      2.68441365 W
atom      -1.62760139      7.68916849      4.37001775 Se
atom      -1.62223637      7.66864617      0.97611564 Se
atom      -4.88660266      9.57260618      2.68420196 W
atom      -3.23894158     10.51296260      4.37256190 Se
atom      -3.25895461     10.53727078      0.99213188 Se
atom      -6.53001480     12.42342281      2.69889642 W
atom      -4.88875204     13.34164032      4.40941200 Se
atom      -4.88781177     13.39689113      1.02649632 Se
atom       3.33268494      1.02333991      2.75673662 W
atom       4.99633534      1.93300790      4.44906650 Se
atom       4.95787690      2.01548009      1.08231156 Se
atom       1.69694950      3.86753929      2.80359096 W
atom       3.32979748      4.65973641      4.62820466 Se
atom       3.31626798      5.07884957      1.33918761 Se
atom       0.00437340      6.73766332      2.69017752 W
atom       1.78594172      7.55576719      4.17281777 Se
atom       1.59736918      7.71161765      0.89370431 Se
atom      -1.61174776      9.57247417      2.66110423 W
atom       0.06877814     10.48862181      4.32770379 Se
atom      -0.01390875     10.56148962      0.94885075 Se
atom      -3.24614833     12.42203184      2.69959767 W
atom      -1.58990936     13.34627864      4.39143339 Se
atom      -1.61937623     13.39041345      1.00554316 Se
atom       6.62671397      1.02024063      2.72075431 W
atom       8.27721042      1.97020034      4.39768109 Se
atom       8.25097913      1.98448497      1.02090183 Se
atom       4.94728552      3.87631883      2.82147865 W
atom       6.62903695      4.86292065      4.42000015 Se
atom       6.56105714      4.82287356      1.05944383 Se
atom       4.88543272      7.58602772      4.16301696 Se
atom       5.09961311      7.72752186      0.87112199 Se
atom       1.64530455      9.54372107      2.55765976 W
atom       3.33607226     10.42888480      4.25290324 Se
atom       3.33325426     10.51355136      0.91082707 Se
atom       0.03543949     12.42387308      2.67454195 W
atom       1.70392849     13.33675651      4.35597010 Se
atom       1.67518805     13.37649589      0.98159496 Se
atom       9.90809731      1.02076247      2.69111006 W
atom      11.55259854      1.96694689      4.37943698 Se
atom      11.55271410      1.97424968      1.00478665 Se
atom       8.25304541      3.87890206      2.71595026 W
atom       9.91425972      4.82945008      4.38511193 Se
atom       9.89576353      4.81273649      1.00912535 Se
atom       6.66104495      6.75488609      2.67564994 W
atom       8.29308336      7.69407268      4.36475784 Se
atom       8.30194854      7.67427896      0.97164949 Se
atom       5.03057905      9.55667371      2.55441919 W
atom       6.60498665     10.49624725      4.32584012 Se
atom       6.68771876     10.57001781      0.94272942 Se
atom       3.33079695     12.39461414      2.63840223 W
atom       4.95915895     13.33554615      4.35495721 Se
atom       4.98600882     13.37668083      0.98103294 Se
atom      13.19766228      1.01965121      2.69120914 W
atom      14.82719370      1.96674939      4.39897473 Se
atom      14.85449684      1.98122829      1.02141031 Se
atom      11.55153222      3.87177354      2.69395291 W
atom      13.18838859      4.82793024      4.38583006 Se
atom      13.20657846      4.81128075      1.00852211 Se
atom       9.92485575      6.72197246      2.68393667 W
atom      11.55614285      7.67616882      4.37723835 Se
atom      11.55773565      7.67323938      0.99145434 Se
atom       8.28317865      9.57783763      2.65692121 W
atom       9.90842551     10.51428648      4.37135174 Se
atom       9.93203195     10.54034296      0.99007388 Se
atom       6.63143986     12.42734528      2.67237454 W
atom       8.25565664     13.34720116      4.39138580 Se
atom       8.28576828     13.39297724      1.00492872 Se
# 
# What follows is the current estimated Hessian matrix constructed by the BFGS algorithm.
# This is NOT the true Hessian matrix of the system.
# If you do not want this information here, switch it off using the "hessian_to_restart_geometry" keyword.
# 
trust_radius             0.0012018246
hessian_file
