# 
# This is the geometry file that corresponds to the current relaxation step.
# If you do not want this file to be written, set the "write_restart_geometry" flag to .false.
#  aims_uuid : 8F33E7B8-AC9C-4647-A4EB-7831F7B2B1D0                                
# 
  set_vacuum_level        52.979670
lattice_vector     16.44347560      0.00000000      0.00000000
lattice_vector     -8.22357185     14.23911350      0.00000000
lattice_vector      0.00000000      0.00000000     99.63748923
atom       0.03824493      1.02067519      2.72224698 W
atom       1.66996448      1.93728454      4.44895079 Se
atom       1.70336145      2.00416304      1.07663280 Se
atom      -1.59623661      3.87525870      2.71602314 W
atom       0.02913806      4.84790542      4.42396123 Se
atom       0.08806708      4.81670713      1.05320337 Se
atom      -3.25557436      6.71938370      2.68452559 W
atom      -1.62765415      7.68916728      4.37018621 Se
atom      -1.62214985      7.66856082      0.97621379 Se
atom      -4.88655925      9.57259468      2.68416093 W
atom      -3.23898606     10.51293494      4.37258016 Se
atom      -3.25883079     10.53726540      0.99219422 Se
atom      -6.53000206     12.42339300      2.69886734 W
atom      -4.88873880     13.34162511      4.40937185 Se
atom      -4.88782053     13.39685161      1.02648276 Se
atom       3.33264549      1.02339220      2.75667467 W
atom       4.99634078      1.93296977      4.44902480 Se
atom       4.95779534      2.01549369      1.08225879 Se
atom       1.69678047      3.86743898      2.80352586 W
atom       3.32984313      4.65975464      4.62809137 Se
atom       3.31606611      5.07881584      1.33923692 Se
atom       0.00436041      6.73758475      2.69042115 W
atom       1.78582326      7.55567759      4.17316457 Se
atom       1.59773828      7.71156875      0.89410751 Se
atom      -1.61167061      9.57240572      2.66120554 W
atom       0.06876476     10.48866593      4.32784218 Se
atom      -0.01381211     10.56144373      0.94887635 Se
atom      -3.24615691     12.42201126      2.69960416 W
atom      -1.58991331     13.34620781      4.39139291 Se
atom      -1.61933949     13.39043168      1.00558969 Se
atom       6.62673153      1.02024307      2.72074519 W
atom       8.27718070      1.97021505      4.39764973 Se
atom       8.25096156      1.98449121      1.02089079 Se
atom       4.94722653      3.87628328      2.82151592 W
atom       6.62906318      4.86299314      4.41984439 Se
atom       6.56100089      4.82292012      1.05926476 Se
atom       4.88540961      7.58618117      4.16284383 Se
atom       5.09983216      7.72770526      0.87086092 Se
atom       1.64534402      9.54371120      2.55783383 W
atom       3.33615727     10.42888928      4.25296571 Se
atom       3.33321695     10.51350077      0.91090828 Se
atom       0.03547367     12.42390457      2.67459809 W
atom       1.70393061     13.33677010      4.35597844 Se
atom       1.67518014     13.37650276      0.98164207 Se
atom       9.90802331      1.02075700      2.69111265 W
atom      11.55259158      1.96694379      4.37938299 Se
atom      11.55266073      1.97429039      1.00479638 Se
atom       8.25299335      3.87894410      2.71584408 W
atom       9.91425530      4.82940212      4.38508364 Se
atom       9.89568097      4.81278346      1.00905510 Se
atom       6.66106826      6.75495221      2.67541816 W
atom       8.29302601      7.69404895      4.36468137 Se
atom       8.30205337      7.67429962      0.97156181 Se
atom       5.03061158      9.55673335      2.55441322 W
atom       6.60503931     10.49634206      4.32579146 Se
atom       6.68770711     10.56999209      0.94263879 Se
atom       3.33080088     12.39455107      2.63843934 W
atom       4.95918759     13.33559491      4.35498468 Se
atom       4.98595557     13.37669273      0.98106760 Se
atom      13.19767306      1.01967129      2.69123562 W
atom      14.82724317      1.96675158      4.39897790 Se
atom      14.85444521      1.98115484      1.02140657 Se
atom      11.55153574      3.87178337      2.69390933 W
atom      13.18831944      4.82792760      4.38582143 Se
atom      13.20657108      4.81129030      1.00853109 Se
atom       9.92481601      6.72198474      2.68388844 W
atom      11.55610797      7.67622261      4.37713498 Se
atom      11.55779772      7.67322437      0.99140479 Se
atom       8.28316145      9.57780452      2.65682880 W
atom       9.90836958     10.51425068      4.37128980 Se
atom       9.93207001     10.54038490      0.99002799 Se
atom       6.63142474     12.42738762      2.67236308 W
atom       8.25561940     13.34717194      4.39133038 Se
atom       8.28581250     13.39298797      1.00491893 Se
# 
# What follows is the current estimated Hessian matrix constructed by the BFGS algorithm.
# This is NOT the true Hessian matrix of the system.
# If you do not want this information here, switch it off using the "hessian_to_restart_geometry" keyword.
# 
trust_radius             0.0024036492
hessian_file
