# 
# This is the geometry file that corresponds to the current relaxation step.
# If you do not want this file to be written, set the "write_restart_geometry" flag to .false.
#  aims_uuid : AA871822-0EB2-4710-A123-8D58671BE134                                
# 
  set_vacuum_level        52.740750
lattice_vector     16.29568820      0.00000000      0.00000000
lattice_vector     -8.14028310     14.11790945      0.00000000
lattice_vector      0.00000000      0.00000000    100.31494303
atom_frac       0.03543387      0.06885395      0.02694594 W
atom_frac       0.17598558      0.14344558      0.04266702 Se
atom_frac       0.16631085      0.13450799      0.00969217 Se
atom_frac       0.03958774      0.26977407      0.02710903 W
atom_frac       0.19012729      0.34504857      0.04258287 Se
atom_frac       0.16829127      0.33414933      0.00945485 Se
atom_frac       0.03545220      0.46655962      0.02694884 W
atom_frac       0.17603163      0.53254939      0.04267010 Se
atom_frac       0.16630414      0.53180420      0.00969218 Se
atom_frac       0.03303931      0.66619898      0.02690465 W
atom_frac       0.16816969      0.73220957      0.04319531 Se
atom_frac       0.16560793      0.73314449      0.01010156 Se
atom_frac       0.03303704      0.86681607      0.02690367 W
atom_frac       0.16816180      0.93595765      0.04319487 Se
atom_frac       0.16560708      0.93246098      0.01010094 Se
atom_frac       0.23430685      0.06878682      0.02629527 W
atom_frac       0.36614309      0.13990563      0.04282498 Se
atom_frac       0.36858748      0.13435025      0.00979366 Se
atom_frac       0.24526910      0.27381812      0.02525111 W
atom_frac       0.36908144      0.33415501      0.00759434 Se
atom_frac       0.24526897      0.47142364      0.02525103 W
atom_frac       0.36907367      0.53495702      0.00759401 Se
atom_frac       0.23431086      0.66549084      0.02629577 W
atom_frac       0.36615243      0.72624931      0.04282496 Se
atom_frac       0.36858294      0.73424609      0.00979363 Se
atom_frac       0.23340955      0.86669352      0.02674114 W
atom_frac       0.36604465      0.93302582      0.04343353 Se
atom_frac       0.36750564      0.93375774      0.01028239 Se
atom_frac       0.43347911      0.06757418      0.02687816 W
atom_frac       0.56505006      0.13354486      0.04378813 Se
atom_frac       0.56799982      0.13352074      0.01058799 Se
atom_frac       0.42821869      0.27076644      0.02565209 W
atom_frac       0.55732989      0.33295373      0.04302869 Se
atom_frac       0.56551162      0.33148386      0.00997839 Se
atom_frac       0.42512155      0.46257075      0.02429988 W
atom_frac       0.54535041      0.52270146      0.04243166 Se
atom_frac       0.56456370      0.53228086      0.00916677 Se
atom_frac       0.42823788      0.65746014      0.02565159 W
atom_frac       0.55737497      0.72443383      0.04302526 Se
atom_frac       0.56551073      0.73403420      0.00997667 Se
atom_frac       0.43348362      0.86589168      0.02687775 W
atom_frac       0.56505885      0.93152016      0.04378649 Se
atom_frac       0.56799637      0.93450043      0.01058636 Se
atom_frac       0.63352361      0.06675743      0.02737686 W
atom_frac       0.76726088      0.13363275      0.04408644 Se
atom_frac       0.76775893      0.13389243      0.01093104 Se
atom_frac       0.63176103      0.26646413      0.02713186 W
atom_frac       0.76527949      0.33368396      0.04388732 Se
atom_frac       0.76687689      0.33256530      0.01076840 Se
atom_frac       0.62698055      0.46451624      0.02648875 W
atom_frac       0.76040491      0.53113644      0.04342494 Se
atom_frac       0.76507410      0.53203819      0.01045464 Se
atom_frac       0.62699584      0.66245795      0.02648669 W
atom_frac       0.76041644      0.72929708      0.04342313 Se
atom_frac       0.76508078      0.73304075      0.01045245 Se
atom_frac       0.63177469      0.86529893      0.02712838 W
atom_frac       0.76528629      0.93161175      0.04388408 Se
atom_frac       0.76688214      0.93432865      0.01076475 Se
atom_frac       0.83456792      0.06736731      0.02748471 W
atom_frac       0.97167741      0.13650961      0.04380854 Se
atom_frac       0.96740607      0.13513662      0.01074792 Se
atom_frac       0.83457044      0.26718773      0.02748695 W
atom_frac       0.97169378      0.33516655      0.04381016 Se
atom_frac       0.96740986      0.33228322      0.01075035 Se
atom_frac       0.83225892      0.46625998      0.02720257 W
atom_frac       0.96807651      0.53339934      0.04358909 Se
atom_frac       0.96568989      0.53193499      0.01051033 Se
atom_frac       0.83083681      0.66540962      0.02701331 W
atom_frac       0.96570453      0.73285583      0.04348840 Se
atom_frac       0.96489817      0.73244682      0.01041892 Se
atom_frac       0.83226050      0.86598482      0.02719945 W
atom_frac       0.96806498      0.93467359      0.04358675 Se
atom_frac       0.96568960      0.93375112      0.01050716 Se
# 
# What follows is the current estimated Hessian matrix constructed by the BFGS algorithm.
# This is NOT the true Hessian matrix of the system.
# If you do not want this information here, switch it off using the "hessian_to_restart_geometry" keyword.
# 
trust_radius             0.0054209755
hessian_file
