#
# temporary structure-file for finite-difference calculation of forces
# displacement  -0.0025 of \# atom    57 direction     2
#
lattice_vector   16.60000000    0.00000000    0.00000000
lattice_vector   -8.30000000   14.37602170    0.00000000
lattice_vector    0.00000000    0.00000000  100.00000000
atom    0.00677343    0.94591280    2.68045805  Mo
atom    1.68575842    1.97003895    4.29869597  Se
atom    1.62004985    1.86862830    0.93045582  Se
atom   -1.64581231    3.84181130    2.69255490  Mo
atom    0.14048092    4.87311301    4.28373474  Se
atom   -0.06700932    4.75335031    0.91790329  Se
atom   -3.32736206    6.72095269    2.68045805  Mo
atom   -1.60094592    7.66291334    4.29874293  Se
atom   -1.72163041    7.65671172    0.93047122  Se
atom   -4.97999637    9.57480494    2.65833354  Mo
atom   -3.29612897   10.52861202    4.30311243  Se
atom   -3.32348561   10.54443368    0.99317918  Se
atom   -6.64799711   12.46377820    2.65834793  Mo
atom   -4.97999343   13.44511930    4.30310227  Se
atom   -4.97998519   13.41348335    0.99319527  Se
atom    3.32001579    0.99182844    2.62871172  Mo
atom    4.95426051    1.97004308    4.29870677  Se
atom    5.01998048    1.86863449    0.93047023  Se
atom    1.60575632    3.76784096    2.53088182  Mo
atom    3.32003068    4.94866092    1.32434497  Se
atom   -0.08404201    6.69478314    2.53090216  Mo
atom    1.79565865    7.58892479    1.32421581  Se
atom   -1.63096299    9.56727974    2.62873368  Mo
atom    0.03326492   10.49346172    4.29875627  Se
atom   -0.02169025   10.60110994    0.93047999  Se
atom   -3.31199553   12.46377826    2.65835800  Mo
atom   -1.67096748   13.41128677    4.34878729  Se
atom   -1.65165742   13.42239976    1.00077788  Se
atom    6.63321975    0.94591306    2.68047651  Mo
atom    8.27130231    1.92779018    4.36454351  Se
atom    8.32390009    1.91445676    1.04556521  Se
atom    5.03426571    3.76784719    2.53090723  Mo
atom    6.49952360    4.87307901    4.28376270  Se
atom    6.70701576    4.75330651    0.91790145  Se
atom    4.84437660    7.58890954    1.32423325  Se
atom    1.63013980    9.66379938    2.53093615  Mo
atom    3.31997316   10.38016120    4.28377619  Se
atom    3.31996569   10.61983966    0.91794085  Se
atom   -0.01420566   12.45956026    2.68050310  Mo
atom    1.65513777   13.38733810    4.36456201  Se
atom    1.66992027   13.43949717    1.04559620  Se
atom    9.95966966    0.95824868    2.72823252  Mo
atom   11.61999301    1.91685265    4.40042603  Se
atom   11.61998518    1.91681392    1.06903595  Se
atom    8.28578660    3.84179524    2.69256822  Mo
atom    9.93613624    4.81138505    4.36451128  Se
atom    9.97395009    4.77247989    1.04556346  Se
atom    6.72402936    6.69469847    2.53091220  Mo
atom    8.24095572    7.66287656    4.29873131  Se
atom    8.36163573    7.65667220    0.93047046  Se
atom    5.00979794    9.66381567    2.53092050  Mo
atom    6.60672153   10.49347486    4.29873388  Se
atom    6.66167953   10.60111180    0.93046503  Se
atom    3.31997375   12.44288167    2.69261545  Mo
atom    4.98484608   13.38733770    4.36454847  Se
atom    4.97004972   13.43949604    1.04558834  Se
atom   13.28030246    0.95824710    2.72822231  Mo
atom   14.96868785    1.92779048    4.36202689  Se
atom   14.91608633    1.91445945    1.04555221  Se
atom   11.61998446    3.83399391    2.72820461  Mo
atom   13.30384971    4.81139059    4.36450834  Se
atom   13.26602857    4.77249268    1.04555822  Se
atom    9.96737343    6.72094837    2.68045773  Mo
atom   11.62000597    7.67987266    4.34874287  Se
atom   11.62000590    7.65760546    1.00075380  Se
atom    8.27096898    9.56726500    2.62872430  Mo
atom    9.93614209   10.52861212    4.30310500  Se
atom    9.96350416   10.54442741    0.99317272  Se
atom    6.65420472   12.45957896    2.68048437  Mo
atom    8.31097385   13.41129074    4.34877483  Se
atom    8.29166997   13.42239986    1.00075641  Se
