#
lattice_vector  15.90000000 0.00000000 0.00000000
lattice_vector  -7.95000000 13.76980392 0.00000000
lattice_vector  0.00000000 0.00000000 100.00000000
#
atom_frac 0.03520326 0.06853857 0.02622633 W
atom_frac 0.17466023 0.14177422 0.04122388 S
atom_frac 0.16621720 0.13426433 0.00992826 S
atom_frac 0.03787738 0.26893746 0.02635693 W
atom_frac 0.18482550 0.34241190 0.04111430 S
atom_frac 0.16718676 0.33359049 0.00974058 S
atom_frac 0.03520658 0.46666600 0.02622598 W
atom_frac 0.17466336 0.53288543 0.04122350 S
atom_frac 0.16621906 0.53195100 0.00992762 S
atom_frac 0.03310566 0.66622613 0.02617548 W
atom_frac 0.16803888 0.73233398 0.04160403 S
atom_frac 0.16595661 0.73318789 0.01032914 S
atom_frac 0.03310381 0.86687837 0.02617565 W
atom_frac 0.16803658 0.93570013 0.04160423 S
atom_frac 0.16595493 0.93276600 0.01032939 S
atom_frac 0.23448820 0.06895180 0.02566799 W
atom_frac 0.36610538 0.13875780 0.04136300 S
atom_frac 0.36853523 0.13407711 0.00999588 S
atom_frac 0.24141215 0.27177613 0.02486114 W
atom_frac 0.36873713 0.33399174 0.00861260 S
atom_frac 0.24141207 0.46963464 0.02486062 W
atom_frac 0.36873664 0.53474670 0.00861182 S
atom_frac 0.23449154 0.66553532 0.02566752 W
atom_frac 0.36610870 0.72734598 0.04136247 S
atom_frac 0.36853749 0.73445929 0.00999517 S
atom_frac 0.23357179 0.86678477 0.02605219 W
atom_frac 0.36609567 0.93304655 0.04184962 S
atom_frac 0.36758092 0.93379025 0.01048262 S
atom_frac 0.43329336 0.06738440 0.02618831 W
atom_frac 0.56533882 0.13353358 0.04212359 S
atom_frac 0.56778630 0.13353271 0.01075402 S
atom_frac 0.43004501 0.26898747 0.02518540 W
atom_frac 0.55897368 0.33310282 0.04152860 S
atom_frac 0.56592140 0.33173521 0.01016793 S
atom_frac 0.42761646 0.46381280 0.02423505 W
atom_frac 0.54994062 0.52497248 0.04104944 S
atom_frac 0.56427486 0.53213844 0.00958587 S
atom_frac 0.43004818 0.66106105 0.02518448 W
atom_frac 0.55897347 0.72587319 0.04152813 S
atom_frac 0.56592426 0.73418920 0.01016727 S
atom_frac 0.43329447 0.86590869 0.02618802 W
atom_frac 0.56533932 0.93180664 0.04212339 S
atom_frac 0.56778697 0.93425554 0.01075379 S
atom_frac 0.63352333 0.06676246 0.02658801 W
atom_frac 0.76722329 0.13361198 0.04236844 S
atom_frac 0.76758520 0.13379269 0.01101182 S
atom_frac 0.63211021 0.26669141 0.02639389 W
atom_frac 0.76563443 0.33370178 0.04221165 S
atom_frac 0.76677287 0.33262689 0.01087419 S
atom_frac 0.62814448 0.46475294 0.02586797 W
atom_frac 0.76173542 0.53158622 0.04183806 S
atom_frac 0.76528356 0.53219123 0.01061173 S
atom_frac 0.62814467 0.66339569 0.02586769 W
atom_frac 0.76173392 0.73015016 0.04183799 S
atom_frac 0.76528398 0.73309362 0.01061158 S
atom_frac 0.63210973 0.86542083 0.02639354 W
atom_frac 0.76563194 0.93193237 0.04221156 S
atom_frac 0.76677264 0.93414623 0.01087402 S
atom_frac 0.83437131 0.06720642 0.02666935 W
atom_frac 0.97065673 0.13574453 0.04214680 S
atom_frac 0.96712823 0.13464970 0.01084196 S
atom_frac 0.83437311 0.26716623 0.02666935 W
atom_frac 0.97065955 0.33491262 0.04214669 S
atom_frac 0.96712953 0.33247632 0.01084190 S
atom_frac 0.83245879 0.46632167 0.02643256 W
atom_frac 0.96788870 0.53346149 0.04195208 S
atom_frac 0.96582602 0.53207370 0.01065413 S
atom_frac 0.83119533 0.66559892 0.02627764 W
atom_frac 0.96598619 0.73299242 0.04185506 S
atom_frac 0.96517854 0.73258929 0.01057998 S
atom_frac 0.83245569 0.86613718 0.02643257 W
atom_frac 0.96788570 0.93442458 0.04195219 S
atom_frac 0.96582434 0.93375089 0.01065437 S
