# 
# This is the geometry file that corresponds to the current relaxation step.
# If you do not want this file to be written, set the "write_restart_geometry" flag to .false.
#  aims_uuid : 6B827468-512A-43E0-AF99-C3E1EA4FDA3B                                
# 
  set_vacuum_level        50.000000
lattice_vector      3.13336308     -0.00026064      0.00000000
lattice_vector     -1.56688259      2.71340000     -0.00000000
lattice_vector      0.00000000     -0.00000000     99.99978532
atom      -0.78336246     -0.45212242     -0.00000004 Mo
atom       0.78333487      0.45213444      1.54549371 S
atom       0.78333486      0.45213444     -1.54549366 S
# 
# What follows is the current estimated Hessian matrix constructed by the BFGS algorithm.
# This is NOT the true Hessian matrix of the system.
# If you do not want this information here, switch it off using the "hessian_to_restart_geometry" keyword.
# 
