lattice_vector 15.7284768499999998 -0.0013537000000000 -0.0015354000000000 
lattice_vector -7.8646168500000000 13.6203564000000004 0.0059724500000000 
lattice_vector 0.0000254852611106 0.0000237807341211 103.1357064594663626 
atom -0.0000425087896344 0.9080274018468835 51.5681979228913647 W
atom 1.5729730112103657 1.8152187018468835 53.1362427428913833 S
atom 1.5726769512103658 1.8164120218468833 50.0005445528913697 S
atom -1.5729658787896343 3.6320986818468834 51.5693924128913750 W
atom 0.0000496412103654 4.5392899818468839 53.1374372328913793 S
atom -0.0002464187896343 4.5404833018468826 50.0017390428913799 S
atom -3.1458892487896351 6.3561699618468843 51.5705869028913639 W
atom -1.5728737287896344 7.2633612618468826 53.1386317228913825 S
atom -1.5731697887896343 7.2645545818468831 50.0029335328913689 S
atom -4.7188126187896344 9.0802412418468830 51.5717813928913742 W
atom -3.1457970987896342 9.9874325418468839 53.1398262128913785 S
atom -3.1460931587896344 9.9886258618468844 50.0041280228913791 S
atom -6.2917359887896342 11.8043125218468816 51.5729758828913631 W
atom -4.7187204687896340 12.7115038218468825 53.1410207028913817 S
atom -4.7190165287896342 12.7126971418468830 50.0053225128913681 S
atom 3.1456528612103658 0.9077566618468834 51.5678908428913729 W
atom 4.7186683812103647 1.8149479618468836 53.1359356628913773 S
atom 4.7183723212103663 1.8161412818468834 50.0002374728913708 S
atom 1.5727294912103662 3.6318279418468835 51.5690853328913619 W
atom 3.1457450112103644 4.5390192418468818 53.1371301528913804 S
atom 3.1454489512103656 4.5402125618468832 50.0014319628913668 S
atom -0.0001938787896342 6.3558992218468839 51.5702798228913721 W
atom 1.5728216412103651 7.2630905218468822 53.1383246428913836 S
atom 1.5725255812103660 7.2642838418468827 50.0026264528913700 S
atom -1.5731172487896348 9.0799705018468835 51.5714743128913753 W
atom -0.0001017287896353 9.9871618018468826 53.1395191328913938 S
atom -0.0003977887896345 9.9883551218468849 50.0038209428913802 S
atom -3.1460406187896344 11.8040417818468821 51.5726688028913642 W
atom -1.5730250987896350 12.7112330818468813 53.1407136228913828 S
atom -1.5733211587896332 12.7124264018468836 50.0050154328913692 S
atom 6.2913482312103666 0.9074859218468835 51.5675837628913740 W
atom 7.8643637512103650 1.8146772218468832 53.1356285828913784 S
atom 7.8640676912103640 1.8158705418468832 49.9999303928913790 S
atom 4.7184248612103667 3.6315572018468831 51.5687782528913630 W
atom 6.2914403812103661 4.5387485018468841 53.1368230728913815 S
atom 6.2911443212103642 4.5399418218468828 50.0011248828913679 S
atom 3.1455014912103660 6.3556284818468836 51.5699727428913732 W
atom 4.7182209512103643 7.2640131018468832 50.0023193728913782 S
atom 1.5725781212103656 9.0796997618468822 51.5711672328913622 W
atom 3.1455936412103660 9.9868910618468849 53.1392120528913807 S
atom 3.1452975812103636 9.9880843818468854 50.0035138628913671 S
atom -0.0003452487896341 11.8037710418468826 51.5723617228913724 W
atom 1.5726702712103662 12.7109623418468818 53.1404065428913768 S
atom 1.5723742112103654 12.7121556618468823 50.0047083528913703 S
atom 9.4370436012103660 0.9072151818468834 51.5672766828913751 W
atom 11.0100591212103662 1.8144064818468830 53.1353215028913795 S
atom 11.0097630612103661 1.8155998018468833 49.9996233128913801 S
atom 7.8641202312103671 3.6312864618468832 51.5684711728913641 W
atom 9.4371357512103664 4.5384777618468819 53.1365159928913826 S
atom 9.4368396912103663 4.5396710818468824 50.0008178028913690 S
atom 6.2911968612103664 6.3553577418468832 51.5696656628913743 W
atom 7.8642123812103675 7.2625490418468823 53.1377104828913787 S
atom 7.8639163212103664 7.2637423618468828 50.0020122928913793 S
atom 4.7182734912103657 9.0794290218468809 51.5708601528913633 W
atom 6.2912890112103668 9.9866203218468836 53.1389049728913818 S
atom 6.2909929512103657 9.9878136418468824 50.0032067828913682 S
atom 3.1453501212103654 11.8035003018468831 51.5720546428913735 W
atom 4.7183656412103678 12.7106916018468823 53.1400994628913779 S
atom 4.7180695812103668 12.7118849218468828 50.0044012728913785 S
atom 12.5827389712103663 0.9069444418468835 51.5669696028913620 W
atom 14.1557544912103666 1.8141357418468835 53.1350144228913805 S
atom 14.1554584312103682 1.8153290618468834 49.9993162328913670 S
atom 11.0098156012103665 3.6310157218468833 51.5681640928913723 W
atom 12.5828311212103667 4.5382070218468824 53.1362089128913837 S
atom 12.5825350612103666 4.5394003418468838 50.0005107228913701 S
atom 9.4368922312103667 6.3550870018468837 51.5693585828913612 W
atom 11.0099077512103669 7.2622783018468819 53.1374034028913798 S
atom 11.0096116912103685 7.2634716218468833 50.0017052128913662 S
atom 7.8639688612103669 9.0791582818468832 51.5705530728913644 W
atom 9.4369843812103689 9.9863495818468806 53.1385978928913829 S
atom 9.4366883212103669 9.9875429018468846 50.0028997028913693 S
atom 6.2910454912103679 11.8032295618468801 51.5717475628913746 W
atom 7.8640610112103664 12.7104208618468810 53.1397923828913790 S
atom 7.8637649512103671 12.7116141818468833 50.0040941928913796 S
