#=======================================================
# FHI-aims file: geometry.in.supercell
# Created using the Atomic Simulation Environment (ASE)
# Wed Jul  7 09:14:52 2021

# Additional information:
#  Number of atoms:     2
#=======================================================
lattice_vector 3.0823436599999998 0.0000000000000000 0.0000000000000000 
lattice_vector 0.0000000000000000 3.0823436599999998 0.0000000000000000 
lattice_vector 0.0000000000000000 0.0000000000000000 3.0823436599999998 
atom 0.0000000000000000 0.0000000000000000 0.0000000000000000 Mo
atom 1.5411718299999999 1.5411718299999999 1.5411718299999999 Mo
