# 
# This is the geometry file that corresponds to the current relaxation step.
# If you do not want this file to be written, set the "write_restart_geometry" flag to .false.
#  aims_uuid : 6EFEEEDD-8E46-46F2-A242-A9D00EAFDD3E                                
# 
lattice_vector     16.60000000      0.00000000      0.00000000
lattice_vector     -8.30000000     14.37602170      0.00000000
lattice_vector      0.00000000      0.00000000    100.00000000
atom      -0.00066718      0.96815854      2.67512520 Mo
atom       1.66017281      1.95877826      4.32033096 Se
atom       1.65981558      1.92180412      1.00366617 Se
atom      -1.64811510      3.85238559      2.67398322 Mo
atom       0.05271892      4.88463820      4.29997716 Se
atom      -0.01400953      4.81585611      0.96999476 Se
atom      -3.29771566      6.70990584      2.67380387 Mo
atom      -1.55357793      7.66647856      4.30009422 Se
atom      -1.64617573      7.64300201      0.96967109 Se
atom      -4.97166222      9.57919368      2.67463657 Mo
atom      -3.28340153     10.52158792      4.32015221 Se
atom      -3.31538240     10.54016944      1.00304702 Se
atom      -6.63960986     12.45908975      2.67376545 Mo
atom      -4.97707331     13.41929999      4.33681787 Se
atom      -4.97635964     13.41987645      1.01244151 Se
atom       3.32015362      0.96760370      2.67475777 Mo
atom       4.96757343      1.93456508      4.34487993 Se
atom       4.98551510      1.92292734      1.01778609 Se
atom       1.66011165      3.87642702      2.63514722 Mo
atom       3.26753768      4.88421089      4.30019759 Se
atom       3.33365940      4.81583560      0.96969588 Se
atom       0.07612275      6.75278176      2.58711961 Mo
atom       1.66021829      7.66720876      0.87534727 Se
atom      -1.62296047      9.56248060      2.63479506 Mo
atom       0.05332838     10.45086444      4.30009904 Se
atom       0.02774559     10.54273474      0.96963793 Se
atom      -3.31140294     12.45466936      2.67459190 Mo
atom      -1.65067228     13.39808374      4.34489907 Se
atom      -1.65162359     13.41942472      1.01784015 Se
atom       6.63881570      0.95780625      2.68954053 Mo
atom       8.29596384      1.91489077      4.35867287 Se
atom       8.30128954      1.91791525      1.02922527 Se
atom       4.96807403      3.85244784      2.67373228 Mo
atom       6.62240012      4.80176619      4.34910956 Se
atom       6.64204532      4.79042671      1.01888937 Se
atom       3.24421332      6.75260901      2.58722665 Mo
atom       4.87391124      7.66672436      4.30014003 Se
atom       4.96629418      7.64347474      0.96984319 Se
atom       1.65968505      9.49630254      2.58712026 Mo
atom       3.26574900     10.45045561      4.30003327 Se
atom       3.29236264     10.54240216      0.96992918 Se
atom       0.01057789     12.43966205      2.67367002 Mo
atom       1.66046335     13.39746852      4.34896536 Se
atom       1.66076680     13.42015754      1.01927376 Se
atom       9.95976846      0.95448087      2.69361130 Mo
atom      11.62331843      1.91467836      4.35880959 Se
atom      11.61846355      1.91747868      1.02968063 Se
atom       8.29640554      3.83574671      2.69353228 Mo
atom       9.95981542      4.79633089      4.35870532 Se
atom       9.95991070      4.79032020      1.02933573 Se
atom       6.61772476      6.70940321      2.67375306 Mo
atom       8.27828168      7.66884428      4.34490743 Se
atom       8.29718174      7.65917585      1.01788998 Se
atom       4.94279850      9.56273730      2.63527115 Mo
atom       6.60381702     10.52103410      4.32040784 Se
atom       6.63579873     10.53951782      1.00386014 Se
atom       3.30990863     12.43933892      2.67401535 Mo
atom       4.97081705     13.39811732      4.34563125 Se
atom       4.97204198     13.41974676      1.01806898 Se
atom      13.28092364      0.95779006      2.69002495 Mo
atom      14.95212808      1.93466706      4.34558684 Se
atom      14.93405173      1.92291729      1.01809658 Se
atom      11.62334009      3.83559093      2.69364878 Mo
atom      13.29739781      4.80236772      4.34890678 Se
atom      13.27778734      4.79089376      1.01941608 Se
atom       9.96000862      6.71010201      2.68966035 Mo
atom      11.64144446      7.66912308      4.34520887 Se
atom      11.62221989      7.65921688      1.01787282 Se
atom       8.29221279      9.57880551      2.67493473 Mo
atom       9.96048932     10.53904076      4.33683729 Se
atom       9.96032313     10.53804027      1.01257550 Se
atom       6.63162060     12.45472183      2.67515165 Mo
atom       8.29714179     13.41912040      4.33683162 Se
atom       8.29598264     13.41971975      1.01309374 Se
# 
# What follows is the current estimated Hessian matrix constructed by the BFGS algorithm.
# This is NOT the true Hessian matrix of the system.
# If you do not want this information here, switch it off using the "hessian_to_restart_geometry" keyword.
# 
trust_radius             0.0152331205
hessian_file
