&CONTROL
calculation = "scf"
pseudo_dir = "/ptmp/alaa/qe/2/pseudo" ! insert pseudopotential directory
prefix = "unfold"
disk_io = "low"
/

&SYSTEM
ibrav = 0
nat = 75
ntyp = 2
ecutwfc = 30
noncolin = .true.
lspinorb = .true.
/

&ELECTRONS
/

ATOMIC_SPECIES
S 16.00 S_ONCV_PBE_FR-1.1.upf ! add S pseudo name
Mo 42.00  Mo_ONCV_PBE_FR-1.0.upf ! add Mo pseudo name

CELL_PARAMETERS angstrom
15.81466480	0.00000000	0.00000000
-7.90733240	13.69590147	0.00000000
0.00000000	0.00000000	20.00000000

ATOMIC_POSITIONS angstrom
Mo	-3.95366620	-5.93489064	-50.00000000
S	-2.37219972	-5.02183054	-48.43418505
S	-2.37219972	-5.02183054	-51.56581495
Mo	-5.53513268	-3.19571034	-50.00000000
S	-3.95366620	-2.28265024	-48.43418505
S	-3.95366620	-2.28265024	-51.56581495
Mo	-7.11659916	-0.45653005	-50.00000000
S	-5.53513268	0.45653005	-48.43418505
S	-5.53513268	0.45653005	-51.56581495
Mo	-8.69806564	2.28265024	-50.00000000
S	-7.11659916	3.19571034	-48.43418505
S	-7.11659916	3.19571034	-51.56581495
Mo	-10.27953212	5.02183054	-50.00000000
S	-8.69806564	5.93489064	-48.43418505
S	-8.69806564	5.93489064	-51.56581495
Mo	-0.79073324	-5.93489064	-50.00000000
S	0.79073324	-5.02183054	-48.43418505
S	0.79073324	-5.02183054	-51.56581495
Mo	-2.37219972	-3.19571034	-50.00000000
S	-0.79073324	-2.28265024	-48.43418505
S	-0.79073324	-2.28265024	-51.56581495
Mo	-3.95366620	-0.45653005	-50.00000000
S	-2.37219972	0.45653005	-48.43418505
S	-2.37219972	0.45653005	-51.56581495
Mo	-5.53513268	2.28265024	-50.00000000
S	-3.95366620	3.19571034	-48.43418505
S	-3.95366620	3.19571034	-51.56581495
Mo	-7.11659916	5.02183054	-50.00000000
S	-5.53513268	5.93489064	-48.43418505
S	-5.53513268	5.93489064	-51.56581495
Mo	2.37219972	-5.93489064	-50.00000000
S	3.95366620	-5.02183054	-48.43418505
S	3.95366620	-5.02183054	-51.56581495
Mo	0.79073324	-3.19571034	-50.00000000
S	2.37219972	-2.28265024	-48.43418505
S	2.37219972	-2.28265024	-51.56581495
Mo	-0.79073324	-0.45653005	-50.00000000
S	0.79073324	0.45653005	-48.43418505
S	0.79073324	0.45653005	-51.56581495
Mo	-2.37219972	2.28265024	-50.00000000
S	-0.79073324	3.19571034	-48.43418505
S	-0.79073324	3.19571034	-51.56581495
Mo	-3.95366620	5.02183054	-50.00000000
S	-2.37219972	5.93489064	-48.43418505
S	-2.37219972	5.93489064	-51.56581495
Mo	5.53513268	-5.93489064	-50.00000000
S	7.11659916	-5.02183054	-48.43418505
S	7.11659916	-5.02183054	-51.56581495
Mo	3.95366620	-3.19571034	-50.00000000
S	5.53513268	-2.28265024	-48.43418505
S	5.53513268	-2.28265024	-51.56581495
Mo	2.37219972	-0.45653005	-50.00000000
S	3.95366620	0.45653005	-48.43418505
S	3.95366620	0.45653005	-51.56581495
Mo	0.79073324	2.28265024	-50.00000000
S	2.37219972	3.19571034	-48.43418505
S	2.37219972	3.19571034	-51.56581495
Mo	-0.79073324	5.02183054	-50.00000000
S	0.79073324	5.93489064	-48.43418505
S	0.79073324	5.93489064	-51.56581495
Mo	8.69806564	-5.93489064	-50.00000000
S	10.27953212	-5.02183054	-48.43418505
S	10.27953212	-5.02183054	-51.56581495
Mo	7.11659916	-3.19571034	-50.00000000
S	8.69806564	-2.28265024	-48.43418505
S	8.69806564	-2.28265024	-51.56581495
Mo	5.53513268	-0.45653005	-50.00000000
S	7.11659916	0.45653005	-48.43418505
S	7.11659916	0.45653005	-51.56581495
Mo	3.95366620	2.28265024	-50.00000000
S	5.53513268	3.19571034	-48.43418505
S	5.53513268	3.19571034	-51.56581495
Mo	2.37219972	5.02183054	-50.00000000
S	3.95366620	5.93489064	-48.43418505
S	3.95366620	5.93489064	-51.56581495

K_POINTS automatic
2 2 1 0 0 0
