#
# temporary structure-file for finite-difference calculation of forces
# displacement   0.0025 of \# atom    15 direction     2
#
lattice_vector   16.60000000    0.00000000    0.00000000
lattice_vector   -8.30000000   14.37602170    0.00000000
lattice_vector    0.00000000    0.00000000  100.00000000
atom    0.03397376    0.99088037    2.66500000  Mo
atom    1.71364574    1.96628847    4.32355844  Se
atom    1.71364574    1.96628847    1.00644156  Se
atom   -1.59678249    3.89397137    2.66500000  Mo
atom    0.08086309    4.95122325    4.29135980  Se
atom    0.08086309    4.95122325    1.03864020  Se
atom   -3.37455310    6.72510510    2.66500000  Mo
atom   -1.76753738    7.81089769    4.31241925  Se
atom   -1.76753738    7.81089769    1.01758075  Se
atom   -4.96856196    9.57779951    2.66500000  Mo
atom   -3.25282401   10.55131012    4.33253441  Se
atom   -3.25282401   10.55131012    0.99746559  Se
atom   -6.62731027   12.45236389    2.66500000  Mo
atom   -4.95781613   13.41215101    4.32477602  Se
atom   -4.95781613   13.41215101    1.00522398  Se
atom    3.35875691    0.95945877    2.66750000  Mo
atom    5.04471495    1.86252723    4.33499701  Se
atom    5.04471495    1.86252723    0.99500299  Se
atom    1.75680174    3.89953272    2.66500000  Mo
atom    3.44729832    4.96438515    4.18463903  Se
atom    3.44729832    4.96438515    1.14536097  Se
atom   -0.09259696    6.94868965    2.66500000  Mo
atom    1.23684583    8.14814577    4.45896945  Se
atom    1.23684583    8.14814577    0.87103055  Se
atom   -1.55975474    9.72363220    2.66500000  Mo
atom   -3.28232666   12.44042692    2.66500000  Mo
atom   -1.57369522   13.28003429    4.33611591  Se
atom   -1.57369522   13.28003429    0.99388409  Se
atom    6.69995398    0.87127389    2.66500000  Mo
atom    8.34546288    1.83913610    4.33052170  Se
atom    8.34546288    1.83913610    0.99947830  Se
atom    5.11697800    3.78612610    2.66500000  Mo
atom    6.73018904    4.71663420    4.36919499  Se
atom    6.73018904    4.71663420    0.96080501  Se
atom    4.86332210    7.49796984    4.18329513  Se
atom    4.86332210    7.49796984    1.14670487  Se
atom    1.27479025    9.81362739    2.66500000  Mo
atom    3.21718821   10.46090626    4.27812087  Se
atom    3.21718821   10.46090626    1.05187913  Se
atom   -0.01897853   12.18335995    2.66500000  Mo
atom    1.59880480   13.25940619    4.32078571  Se
atom    1.59880480   13.25940619    1.00921429  Se
atom    9.97221220    0.86673003    2.66500000  Mo
atom   11.63643633    1.86358370    4.32454967  Se
atom   11.63643633    1.86358370    1.00545033  Se
atom    8.35329131    3.76730272    2.66500000  Mo
atom   10.00623739    4.75411570    4.32460484  Se
atom   10.00623739    4.75411570    1.00539516  Se
atom    6.70261863    6.57508017    2.66500000  Mo
atom    8.29192797    7.63474813    4.33713483  Se
atom    8.29192797    7.63474813    0.99286517  Se
atom    4.98303440    9.49981874    2.66500000  Mo
atom    6.61892826   10.49270406    4.33506406  Se
atom    6.61892826   10.49270406    0.99493594  Se
atom    3.30761114   12.41251105    2.66500000  Mo
atom    4.97608285   13.38873291    4.32685397  Se
atom    4.97608285   13.38873291    1.00314603  Se
atom   13.31240569    0.94195788    2.66500000  Mo
atom   14.97732189    1.95374531    4.31941577  Se
atom   14.97732189    1.95374531    1.01058423  Se
atom   11.66737126    3.80083364    2.66500000  Mo
atom   13.31846314    4.79822149    4.33226773  Se
atom   13.31846314    4.79822149    0.99773227  Se
atom    9.95824815    6.68772822    2.66500000  Mo
atom   11.58508263    7.66876346    4.34046964  Se
atom   11.58508263    7.66876346    0.98953036  Se
atom    8.28852511    9.55676069    2.66500000  Mo
atom    9.96311429   10.53139620    4.32587023  Se
atom    9.96311429   10.53139620    1.00412977  Se
atom    6.62953296   12.42441898    2.66500000  Mo
atom    8.30302053   13.42220510    4.31430303  Se
atom    8.30302053   13.42220510    1.01569697  Se
