# 
# This is the geometry file that corresponds to the current relaxation step.
# If you do not want this file to be written, set the "write_restart_geometry" flag to .false.
#  aims_uuid : B51B6E4C-54C2-47CA-A6C3-7BBBEE064AAF                                
# 
  set_vacuum_level        53.072500
lattice_vector     15.90000000      0.00000000      0.00000000
lattice_vector     -7.95000000     13.76980390      0.00000000
lattice_vector      0.00000000      0.00000000    100.00000000
atom       1.59302697      0.92011566      3.10519294 Mo
atom       0.00000441      1.84164626      4.66952190 S
atom       0.00000140      1.83370135      1.54147274 S
atom       0.00000065      3.67352910      3.09921349 Mo
atom      -1.60958442      4.59353102      4.65286669 S
atom      -1.59014814      4.58172265      1.52585148 S
atom      -1.59692580      6.42181339      3.08151555 Mo
atom      -3.21278488      7.32535583      4.62683422 S
atom      -3.18041334      7.34404321      1.50885190 S
atom      -3.18734430      9.17649824      3.08151804 Mo
atom      -4.77701760     10.07968414      4.65285888 S
atom      -4.77752386     10.10241804      1.52585862 S
atom      -4.76896338     11.93361288      3.09921326 Mo
atom      -6.35542199     12.84955647      4.66951677 S
atom      -6.36230162     12.85352198      1.54147603 S
atom       4.77950588      0.93403563      3.08103301 Mo
atom       3.19799606      1.84674035      4.65707196 S
atom       3.17478493      1.83333690      1.52912564 S
atom       3.19834709      3.67270285      3.08103276 Mo
atom       1.60958317      4.59351759      4.65286920 S
atom       1.59015107      4.58171458      1.52585895 S
atom       1.59690979      6.42180150      3.08152559 Mo
atom       0.00000055      7.34156612      4.64346359 S
atom       0.00000803      7.34043169      1.51978760 S
atom      -0.00001317      9.18024889      3.08147297 Mo
atom      -1.59235841     10.09959274      4.64346455 S
atom      -1.59333864     10.10016292      1.51978688 S
atom      -1.59041790     11.94244718      3.08152446 Mo
atom      -3.16743030     12.86753895      4.65287420 S
atom      -3.18736891     12.85660793      1.52585167 S
atom       7.94998174      0.95501400      3.04008630 Mo
atom       6.40948370      1.91659802      4.60410806 S
atom       6.34288318      1.85209704      1.47137856 S
atom       6.40696415      3.69943740      2.99429607 Mo
atom       4.86427157      4.59303341      4.60411478 S
atom       4.77509852      4.56761332      1.47137072 S
atom       4.80177892      6.40795254      3.04008971 Mo
atom       3.21277374      7.32535608      4.62683888 S
atom       3.18040803      7.34405240      1.50887895 S
atom       3.18735195      9.17651026      3.08153714 Mo
atom       1.59233696     10.09957913      4.64347407 S
atom       1.59333368     10.10014914      1.51980049 S
atom       1.59043386     11.94242026      3.08153484 Mo
atom       0.00000569     12.89001968      4.62684891 S
atom       0.00001322     12.85263846      1.50886460 S
atom      11.12050533      0.93404730      3.08104029 Mo
atom       9.49050423      1.91659287      4.60410671 S
atom       9.55710914      1.85208676      1.47138115 S
atom       9.49301990      3.69942561      2.99429103 Mo
atom       7.94999780      4.59032622      1.41686276 S
atom       7.95002143      6.37210520      2.99427248 Mo
atom       6.40478954      7.26129930      4.60409899 S
atom       6.38220089      7.35124801      1.47137905 S
atom       6.36884909      9.16420312      3.08103929 Mo
atom       4.77702078     10.07967724      4.65289024 S
atom       4.77752057     10.10241021      1.52586639 S
atom       4.76896821     11.93360505      3.09923040 Mo
atom       3.16743464     12.86754920      4.65287820 S
atom       3.18737980     12.85660996      1.52587310 S
atom      14.30697654      0.92011745      3.10519698 Mo
atom      12.70200707      1.84674254      4.65707684 S
atom      12.72521690      1.83332938      1.52912597 S
atom      12.70166520      3.67270976      3.08102955 Mo
atom      11.03572730      4.59304086      4.60409221 S
atom      11.12490223      4.56760870      1.47137655 S
atom      11.09822233      6.40795946      3.04007219 Mo
atom       9.49522648      7.26130234      4.60410546 S
atom       9.51779730      7.35124540      1.47135162 S
atom       9.53114622      9.16418640      3.08102999 Mo
atom       7.95001118     10.07749305      4.65708090 S
atom       7.95000073     10.10428354      1.52912019 S
atom       7.94998748     11.93072619      3.10519529 Mo
atom       6.35542201     12.84957022      4.66953138 S
atom       6.36228747     12.85353150      1.54147718 S
