#
# temporary structure-file for finite-difference calculation of forces
# displacement  -0.0025 of \# atom    65 direction     0
#
lattice_vector   16.60000000    0.00000000    0.00000000
lattice_vector   -8.30000000   14.37602170    0.00000000
lattice_vector    0.00000000    0.00000000  100.00000000
atom    0.01730492    1.00524678    2.66500000  Mo
atom    1.68553061    2.00727031    4.32269398  Se
atom    1.68553061    2.00727031    1.00730602  Se
atom   -1.57787028    3.90064645    2.66500000  Mo
atom    0.10932794    5.05110381    4.27893962  Se
atom    0.10932794    5.05110381    1.05106038  Se
atom   -3.28841812    6.73816457    2.66500000  Mo
atom   -1.65110749    7.75690529    4.37721238  Se
atom   -1.65110749    7.75690529    0.95278762  Se
atom   -5.01762704    9.59577762    2.66500000  Mo
atom   -3.39178271   10.58389001    4.33915179  Se
atom   -3.39178271   10.58389001    0.99084821  Se
atom   -6.66534824   12.47382733    2.66500000  Mo
atom   -5.00786731   13.45376810    4.32719437  Se
atom   -5.00786731   13.45376810    1.00280563  Se
atom    3.32625495    1.00106093    2.66500000  Mo
atom    5.00676692    1.91577617    4.33655934  Se
atom    5.00676692    1.91577617    0.99344066  Se
atom    1.74927946    3.94480930    2.66500000  Mo
atom    3.42576582    4.98061223    4.21008771  Se
atom    3.42576582    4.98061223    1.11991229  Se
atom   -0.00840201    7.10724216    2.66500000  Mo
atom   -1.73904629    9.62972049    2.66500000  Mo
atom   -0.07313648   10.48992893    4.37721352  Se
atom   -0.07313648   10.48992893    0.95278648  Se
atom   -3.34900872   12.48594539    2.66500000  Mo
atom   -1.65720373   13.40393620    4.32958755  Se
atom   -1.65720373   13.40393620    1.00041245  Se
atom    6.66645520    0.94295109    2.66500000  Mo
atom    8.34790202    1.87374288    4.32940699  Se
atom    8.34790202    1.87374288    1.00059301  Se
atom    5.08856735    3.82801850    2.66500000  Mo
atom    6.72518043    4.74281283    4.36086589  Se
atom    6.72518043    4.74281283    0.96913411  Se
atom    4.86945469    7.48125574    4.21007563  Se
atom    4.86945469    7.48125574    1.11992437  Se
atom    1.31075932    9.39204455    2.66500000  Mo
atom    3.15033150   10.31817006    4.27891304  Se
atom    3.15033150   10.31817006    1.05108696  Se
atom   -0.00958204   12.41721811    2.66500000  Mo
atom    1.67891014   13.34799394    4.32415904  Se
atom    1.67891014   13.34799394    1.00584096  Se
atom    9.99754648    0.90929454    2.66500000  Mo
atom   11.66038704    1.89349973    4.32569927  Se
atom   11.66038704    1.89349973    1.00430073  Se
atom    8.36093348    3.79840950    2.66500000  Mo
atom   10.02122051    4.77205285    4.32940524  Se
atom   10.02122051    4.77205285    1.00059476  Se
atom    6.69907064    6.61754210    2.66500000  Mo
atom    8.31420702    7.64449771    4.33657853  Se
atom    8.31420702    7.64449771    0.99342147  Se
atom    4.92837748    9.45104992    2.66500000  Mo
atom    6.57444576   10.47505853    4.32269239  Se
atom    6.57444576   10.47505853    1.00730761  Se
atom    3.30299992   12.35457756    2.66500000  Mo
atom    4.95684782   13.36485946    4.32546916  Se
atom    4.95684782   13.36485946    1.00453084  Se
atom   13.31388092    0.93883586    2.66500000  Mo
atom   14.97411945    1.96323947    4.32547454  Se
atom   14.97411945    1.96323947    1.00452546  Se
atom   11.68129596    3.82566160    2.66500000  Mo
atom   13.34976971    4.81049565    4.32414912  Se
atom   13.34976971    4.81049565    1.00585088  Se
atom    9.98654360    6.69361818    2.66500000  Mo
atom   11.63322404    7.67164398    4.32957633  Se
atom   11.63072404    7.67164398    1.00042367  Se
atom    8.26616889    9.55719350    2.66500000  Mo
atom    9.91475967   10.54843410    4.32718865  Se
atom    9.91475967   10.54843410    1.00281135  Se
atom    6.60809064   12.42078771    2.66500000  Mo
atom    8.27088340   13.43443018    4.31641329  Se
atom    8.27088340   13.43443018    1.01358671  Se
