# 
# This is the geometry file that corresponds to the current relaxation step.
# If you do not want this file to be written, set the "write_restart_geometry" flag to .false.
#  aims_uuid : EF62F184-3DA4-427E-AFBB-75A6FE238CB5                                
# 
  set_vacuum_level        52.913157
lattice_vector     16.29568820      0.00000000      0.00000000
lattice_vector     -8.14028310     14.11790945      0.00000000
lattice_vector      0.00000000      0.00000000    100.31494303
atom      -0.01987490      0.91521786      2.65936688 W
atom       1.60114059      1.79425522      4.39947798 Se
atom       1.62543801      1.89451885      0.99658010 Se
atom      -1.62442808      3.76733234      2.68753714 W
atom      -0.00963538      4.69610759      4.42548060 Se
atom       0.06554611      4.73116280      1.05234555 Se
atom      -3.27684458      6.58034181      2.65391137 W
atom      -1.68653099      7.53829472      4.38384309 Se
atom      -1.59135821      7.50779690      0.99122220 Se
atom      -4.90658382      9.39486002      2.63086001 W
atom      -3.29021213     10.33695226      4.34736290 Se
atom      -3.26146541     10.33557898      0.94906761 Se
atom      -6.53529444     12.21407871      2.63282439 W
atom      -4.90918338     13.13019339      4.35307901 Se
atom      -4.89684745     13.16691769      0.95220931 Se
atom       3.24294407      0.90856555      2.67889594 W
atom       4.88593956      1.83162102      4.37821128 Se
atom       4.86208930      1.84209055      0.96365494 Se
atom       1.64683636      3.71890492      2.77065490 W
atom       3.25904140      4.56171272      4.48601432 Se
atom       3.26650801      4.82741358      1.17071966 Se
atom       0.01132520      6.61414333      2.76085601 W
atom       1.57887381      7.55583487      4.43293367 Se
atom       1.80234634      7.49628006      1.14202088 Se
atom      -1.64098251      9.40512627      2.66737550 W
atom      -0.01080198     10.35150485      4.36559698 Se
atom      -0.03536100     10.35551802      0.94691669 Se
atom      -3.27123456     12.21624280      2.64866713 W
atom      -1.63996466     13.15601880      4.35242949 Se
atom      -1.64396756     13.16038998      0.94697123 Se
atom       6.50522121      0.91553162      2.65168247 W
atom       8.12914108      1.88960334      4.33742955 Se
atom       8.12334058      1.86712440      0.94081672 Se
atom       4.86128856      3.70421129      2.67452377 W
atom       6.46852013      4.75016422      4.29587739 Se
atom       6.46319288      4.66259399      0.90818117 Se
atom       4.59619419      7.40070185      3.98307004 Se
atom       4.97575359      7.58896556      0.69538242 Se
atom       1.59915087      9.43570127      2.63509334 W
atom       3.27180805     10.32042969      4.29993120 Se
atom       3.21786393     10.35832232      0.89237137 Se
atom      -0.01243854     12.23030768      2.64828665 W
atom       1.62981195     13.16837345      4.33649417 Se
atom       1.60628629     13.17736056      0.93752811 Se
atom       9.75827669      0.93724846      2.64067899 W
atom      11.38966668      1.87701495      4.33914701 Se
atom      11.39338786      1.87960946      0.94223381 Se
atom       8.11609307      3.76415671      2.62205218 W
atom       9.74543685      4.70629413      4.32311747 Se
atom       9.76531977      4.68803715      0.92636152 Se
atom       6.46448504      6.59284095      2.51171302 W
atom       8.07288114      7.51233479      4.25696552 Se
atom       8.16077712      7.51712012      0.87482804 Se
atom       4.86751455      9.41110470      2.53791008 W
atom       6.48278085     10.31383463      4.26878653 Se
atom       6.51577153     10.36816930      0.87125765 Se
atom       3.24705605     12.22757873      2.61809796 W
atom       4.87958678     13.15756264      4.32135706 Se
atom       4.87601100     13.18797132      0.92248734 Se
atom      13.02335640      0.93809522      2.64052425 W
atom      14.64625410      1.86121714      4.35929341 Se
atom      14.66850563      1.90017650      0.96436809 Se
atom      11.39301720      3.76020593      2.64070305 W
atom      13.00939691      4.70214564      4.35725983 Se
atom      13.05332718      4.69629782      0.96245987 Se
atom       9.76309669      6.57619803      2.61152684 W
atom      11.36465844      7.51892124      4.33421173 Se
atom      11.41423058      7.51555470      0.92946806 Se
atom       8.12680959      9.39906658      2.57452372 W
atom       9.73609661     10.31957789      4.31367580 Se
atom       9.78208680     10.34867381      0.91263963 Se
atom       6.50417496     12.22828002      2.60886305 W
atom       8.12168137     13.13232981      4.33621288 Se
atom       8.14659009     13.18096391      0.93020050 Se
# 
# What follows is the current estimated Hessian matrix constructed by the BFGS algorithm.
# This is NOT the true Hessian matrix of the system.
# If you do not want this information here, switch it off using the "hessian_to_restart_geometry" keyword.
# 
trust_radius             0.0008374789
hessian_file
