#
# Model[1]: Jmol 14.6.4_2016.11.05  2016-11-10 03:30
# Generated by Open Babel 3.0.0
#
lattice_vector     16.29568820      0.00000000      0.00000000
lattice_vector     -8.14028310     14.11790945      0.00000000
lattice_vector      0.00000000      0.00000000    100.31494303
atom                  -0.00350        0.93110        2.57810  W
atom                   1.64530        1.90070        4.20620  Se
atom                   1.61320        1.80640        0.86170  Se
atom                  -1.62180        3.76980        2.56610  W
atom                   0.07020        4.72060        4.16910  Se
atom                  -0.00150        4.72090        0.87370  Se
atom                  -3.26480        6.58840        2.60620  W
atom                  -1.62460        7.52920        4.27540  Se
atom                  -1.68670        7.55970        0.91690  Se
atom                  -4.88330        9.41380        2.61920  W
atom                  -3.26030       10.36420        4.28040  Se
atom                  -3.26240       10.35130        0.94200  Se
atom                  -6.50960       12.23510        2.60920  W
atom                  -4.87880       13.19500        4.25740  Se
atom                  -4.88490       13.14120        0.91590  Se
atom                   3.26080        0.92390        2.55000  W
atom                   4.86990        1.88380        4.22330  Se
atom                   4.91180        1.82210        0.87570  Se
atom                   1.65810        3.71560        2.47180  W
atom                   3.40262        4.57234        4.64967  Se
atom                   3.41154        4.64977        1.53249  Se
atom                  -0.03860        6.63840        2.54100  W
atom                   1.39972        7.71756        4.63689  Se
atom                   1.45642        7.63958        1.40594  Se
atom                  -1.63780        9.41880        2.61520  W
atom                  -0.05650       10.39530        4.31350  Se
atom                   0.01040       10.34450        0.95600  Se
atom                  -3.25440       12.23490        2.60120  W
atom                  -1.63620       13.19010        4.27240  Se
atom                  -1.61460       13.16110        0.93190  Se
atom                   6.52270        0.93180        2.58810  W
atom                   8.13500        1.88760        4.26940  Se
atom                   8.15440        1.88870        0.93490  Se
atom                   4.85480        3.71410        2.50990  W
atom                   6.45610        4.69510        4.24830  Se
atom                   6.50320        4.76480        0.95600  Se
atom                   4.32857        7.04504        4.52051  Se
atom                   4.21835        6.99696        1.27998  Se
atom                   1.56640        9.41480        2.69950  W
atom                   3.25350       10.34660        4.35370  Se
atom                   3.28220       10.27710        1.06430  Se
atom                   0.00090       12.24220        2.61720  W
atom                   1.62160       13.18730        4.29650  Se
atom                   1.65390       13.15700        0.96200  Se
atom                   9.77320        0.93880        2.61220  W
atom                  11.40860        1.88570        4.27340  Se
atom                  11.40460        1.87770        0.94600  Se
atom                   8.13760        3.77090        2.60620  W
atom                   9.77280        4.69660        4.28140  Se
atom                   9.77130        4.71430        0.94700  Se
atom                   6.55580        6.64490        2.69250  W
atom                   8.21290        7.53940        4.33760  Se
atom                   8.15160        7.54930        0.98710  Se
atom                   4.95710        9.41130        2.75360  W
atom                   6.58830       10.40870        4.35770  Se
atom                   6.51500       10.33090        1.01120  Se
atom                   3.26340       12.22410        2.65930  W
atom                   4.90130       13.19350        4.30250  Se
atom                   4.88360       13.14870        0.97000  Se
atom                  13.03900        0.93830        2.61020  W
atom                  14.68360        1.90200        4.25130  Se
atom                  14.65290        1.86920        0.91790  Se
atom                  11.40700        3.76810        2.60720  W
atom                  13.05980        4.69800        4.26140  Se
atom                  13.02290        4.71270        0.92690  Se
atom                   9.79200        6.58910        2.62830  W
atom                  11.42490        7.53010        4.28850  Se
atom                  11.39750        7.53420        0.94800  Se
atom                   8.17070        9.42000        2.66540  W
atom                   9.81210       10.37450        4.30150  Se
atom                   9.77200       10.34260        0.96000  Se
atom                   6.53270       12.24360        2.64030  W
atom                   8.17430       13.20390        4.27940  Se
atom                   8.14110       13.14760        0.93790  Se
