# 
# This is the geometry file that corresponds to the current relaxation step.
# If you do not want this file to be written, set the "write_restart_geometry" flag to .false.
#  aims_uuid : 9D501A31-2D2C-4616-A6F1-3A779E777CBE                                
# 
lattice_vector      3.08234366     -0.00000000     -0.00000000
lattice_vector      0.00000000      3.08234366     -0.00000000
lattice_vector     -0.00000000      0.00000000      3.08234366
atom       0.00000000      0.00000000      0.00000000 Mo
atom       1.54117183      1.54117183      1.54117183 Mo
