# 
# This is the geometry file that corresponds to the current relaxation step.
# If you do not want this file to be written, set the "write_restart_geometry" flag to .false.
#  aims_uuid : BF214E9C-B8C3-414F-A5C8-F695835EA44A                                
# 
  set_vacuum_level        53.072132
lattice_vector     15.66599045      0.00000000      0.00000000
lattice_vector     -7.83292280     13.56702030      0.00000000
lattice_vector      0.00000000      0.00000000     99.99930752
atom       1.57183889      0.90790559      3.07247872 Mo
atom       0.00001090      1.81174516      4.61639009 S
atom       0.00001090      1.81174516      1.52856735 S
atom       0.00001575      3.61949708      3.07247872 Mo
atom      -1.59009250      4.51584948      4.61401950 S
atom      -1.59009250      4.51584948      1.53093794 S
atom      -1.58078180      6.32367652      3.07247872 Mo
atom      -3.15850725      7.22151928      4.61197481 S
atom      -3.15850725      7.22151928      1.53298264 S
atom      -3.14720198      9.03677762      3.07247872 Mo
atom      -4.71748725      9.93263716      4.61400262 S
atom      -4.71748725      9.93263716      1.53095482 S
atom      -4.69872402     11.75788131      3.07247872 Mo
atom      -6.26425550     12.66176677      4.61639072 S
atom      -6.26425550     12.66176677      1.52856672 S
atom       4.71571238      0.94241508      3.07247872 Mo
atom       3.14508266      1.81617275      4.61718156 S
atom       3.14508266      1.81617275      1.52777589 S
atom       3.17379978      3.61326370      3.07247872 Mo
atom       1.59014176      4.51584199      4.61401931 S
atom       1.59014176      4.51584199      1.53093813 S
atom       1.58085068      6.32366749      3.07247872 Mo
atom       0.00004301      7.22911890      4.61155854 S
atom       0.00004301      7.22911890      1.53339891 S
atom       0.00004611      9.04507312      3.07247872 Mo
atom      -1.57263457      9.95302134      4.61156212 S
atom      -1.57263457      9.95302134      1.53339533 S
atom      -1.56637385     11.77474423      3.07247872 Mo
atom      -3.12736334     12.68668737      4.61401688 S
atom      -3.12736334     12.68668737      1.53094056 S
atom       7.83298579      0.95863419      3.07247872 Mo
atom       6.31082803      1.91852737      4.61240661 S
atom       6.31082803      1.91852737      1.53255084 S
atom       6.41994500      3.70679996      3.07247872 Mo
atom       4.81679774      4.50651436      4.61240026 S
atom       4.81679774      4.50651436      1.53255719 S
atom       4.74660537      6.30468789      3.07247872 Mo
atom       3.15860021      7.22150648      4.61197207 S
atom       3.15860021      7.22150648      1.53298538 S
atom       3.14729986      9.03677326      3.07247872 Mo
atom       1.57274370      9.95301818      4.61156296 S
atom       1.57274370      9.95301818      1.53339449 S
atom       1.56648912     11.77474181      3.07247872 Mo
atom       0.00006455     12.69208800      4.61199417 S
atom       0.00006455     12.69208800      1.53296328 S
atom      10.95027032      0.94243715      3.07247872 Mo
atom       9.35515989      1.91855444      4.61240377 S
atom       9.35515989      1.91855444      1.53255368 S
atom       9.24604277      3.70683050      3.07247872 Mo
atom       7.83303274      6.15438396      3.07247872 Mo
atom       6.33894548      7.14297939      4.61241039 S
atom       6.33894548      7.14297939      1.53254706 S
atom       6.29111156      9.01243665      3.07247872 Mo
atom       4.71760645      9.93263103      4.61399987 S
atom       4.71760645      9.93263103      1.53095757 S
atom       4.69884616     11.75788462      3.07247872 Mo
atom       3.12749317     12.68669820      4.61401444 S
atom       3.12749317     12.68669820      1.53094300 S
atom      14.09415665      0.90791100      3.07247872 Mo
atom      12.52092246      1.81618485      4.61718236 S
atom      12.52092246      1.81618485      1.52777509 S
atom      12.49222288      3.61327613      3.07247872 Mo
atom      10.84923310      4.50652939      4.61239294 S
atom      10.84923310      4.50652939      1.53256451 S
atom      10.91947292      6.30471483      3.07247872 Mo
atom       9.32714282      7.14299799      4.61240480 S
atom       9.32714282      7.14299799      1.53255265 S
atom       9.37499126      9.01245201      3.07247872 Mo
atom       7.83305550      9.93587675      4.61717959 S
atom       7.83305550      9.93587675      1.52777786 S
atom       7.83306075     11.75247211      3.07247872 Mo
atom       6.26439692     12.66176875      4.61639059 S
atom       6.26439692     12.66176875      1.52856685 S
# 
# What follows is the current estimated Hessian matrix constructed by the BFGS algorithm.
# This is NOT the true Hessian matrix of the system.
# If you do not want this information here, switch it off using the "hessian_to_restart_geometry" keyword.
# 
trust_radius             0.0004883296
hessian_file
