# 
# This is the geometry file that corresponds to the current relaxation step.
# If you do not want this file to be written, set the "write_restart_geometry" flag to .false.
#  aims_uuid : 05D6FB5D-F5CA-430A-AAC2-A9B4A4ECBAE2                                
# 
  set_vacuum_level        53.072498
lattice_vector     15.90000000      0.00000000      0.00000000
lattice_vector     -7.95000000     13.76980390      0.00000000
lattice_vector      0.00000000      0.00000000    100.00000000
atom       1.58999925      0.91837431      3.07249914 Mo
atom      -0.00000013      1.83636334      4.63755621 S
atom      -0.00000012      1.83636335      1.50743965 S
atom      -0.00000075      3.67233509      3.07249914 Mo
atom      -1.59000013      4.59032412      4.63755621 S
atom      -1.59000012      4.59032413      1.50743965 S
atom      -1.59000075      6.42629587      3.07249914 Mo
atom      -3.18000013      7.34428490      4.63755621 S
atom      -3.18000012      7.34428491      1.50743965 S
atom      -3.18000075      9.18025665      3.07249914 Mo
atom      -4.77000013     10.09824568      4.63755621 S
atom      -4.77000012     10.09824569      1.50743965 S
atom      -4.77000075     11.93421743      3.07249914 Mo
atom      -6.36000013     12.85220646      4.63755621 S
atom      -6.36000012     12.85220647      1.50743965 S
atom       4.76999925      0.91837431      3.07249914 Mo
atom       3.17999987      1.83636334      4.63755621 S
atom       3.17999988      1.83636335      1.50743965 S
atom       3.17999925      3.67233509      3.07249914 Mo
atom       1.58999987      4.59032412      4.63755621 S
atom       1.58999988      4.59032413      1.50743965 S
atom       1.58999925      6.42629587      3.07249914 Mo
atom      -0.00000013      7.34428490      4.63755621 S
atom      -0.00000012      7.34428491      1.50743965 S
atom      -0.00000075      9.18025665      3.07249914 Mo
atom      -1.59000013     10.09824568      4.63755621 S
atom      -1.59000012     10.09824569      1.50743965 S
atom      -1.59000075     11.93421743      3.07249914 Mo
atom      -3.18000013     12.85220646      4.63755621 S
atom      -3.18000012     12.85220647      1.50743965 S
atom       7.94999925      0.91837431      3.07249914 Mo
atom       6.35999987      1.83636334      4.63755621 S
atom       6.35999988      1.83636335      1.50743965 S
atom       6.35999925      3.67233509      3.07249914 Mo
atom       4.76999987      4.59032412      4.63755621 S
atom       4.76999988      4.59032413      1.50743965 S
atom       4.76999925      6.42629587      3.07249914 Mo
atom       3.17999987      7.34428490      4.63755621 S
atom       3.17999988      7.34428491      1.50743965 S
atom       3.17999925      9.18025665      3.07249914 Mo
atom       1.58999987     10.09824568      4.63755621 S
atom       1.58999988     10.09824569      1.50743965 S
atom       1.58999925     11.93421743      3.07249914 Mo
atom      -0.00000013     12.85220646      4.63755621 S
atom      -0.00000012     12.85220647      1.50743965 S
atom      11.12999925      0.91837431      3.07249914 Mo
atom       9.53999987      1.83636334      4.63755621 S
atom       9.53999988      1.83636335      1.50743965 S
atom       9.53999925      3.67233509      3.07249914 Mo
atom       7.94999987      4.59032412      4.63755621 S
atom       7.94999988      4.59032413      1.50743965 S
atom       7.94999925      6.42629587      3.07249914 Mo
atom       6.35999987      7.34428490      4.63755621 S
atom       6.35999988      7.34428491      1.50743965 S
atom       6.35999925      9.18025665      3.07249914 Mo
atom       4.76999987     10.09824568      4.63755621 S
atom       4.76999988     10.09824569      1.50743965 S
atom       4.76999925     11.93421743      3.07249914 Mo
atom       3.17999987     12.85220646      4.63755621 S
atom       3.17999988     12.85220647      1.50743965 S
atom      14.30999925      0.91837431      3.07249914 Mo
atom      12.71999987      1.83636334      4.63755621 S
atom      12.71999988      1.83636335      1.50743965 S
atom      12.71999925      3.67233509      3.07249914 Mo
atom      11.12999987      4.59032412      4.63755621 S
atom      11.12999988      4.59032413      1.50743965 S
atom      11.12999925      6.42629587      3.07249914 Mo
atom       9.53999987      7.34428490      4.63755621 S
atom       9.53999988      7.34428491      1.50743965 S
atom       9.53999925      9.18025665      3.07249914 Mo
atom       7.94999987     10.09824568      4.63755621 S
atom       7.94999988     10.09824569      1.50743965 S
atom       7.94999925     11.93421743      3.07249914 Mo
atom       6.35999987     12.85220646      4.63755621 S
atom       6.35999988     12.85220647      1.50743965 S
# 
# What follows is the current estimated Hessian matrix constructed by the BFGS algorithm.
# This is NOT the true Hessian matrix of the system.
# If you do not want this information here, switch it off using the "hessian_to_restart_geometry" keyword.
# 
