# 
# This is the geometry file that corresponds to the current relaxation step.
# If you do not want this file to be written, set the "write_restart_geometry" flag to .false.
#  aims_uuid : 3A57316E-B0C4-4A05-A1D8-DD328BF66203                                
# 
  set_vacuum_level        50.000000
lattice_vector      3.18363146     -0.00026482      0.00000000
lattice_vector     -1.59202644      2.75694207      0.00000000
lattice_vector      0.00000000      0.00000000     99.99982179
atom      -0.79591579     -0.45938736     -0.00000004 Mo
atom       0.79589428      0.45939472      1.56654564 S
atom       0.79589427      0.45939472     -1.56654559 S
# 
# What follows is the current estimated Hessian matrix constructed by the BFGS algorithm.
# This is NOT the true Hessian matrix of the system.
# If you do not want this information here, switch it off using the "hessian_to_restart_geometry" keyword.
# 
trust_radius             0.0001787309
hessian_file
