# 
# This is the geometry file that corresponds to the current relaxation step.
# If you do not want this file to be written, set the "write_restart_geometry" flag to .false.
#  aims_uuid : F46F9CB0-4849-4E9D-AB4B-D7B96DD2D556                                
# 
  set_vacuum_level        52.571660
lattice_vector     15.80931190      0.00000000      0.00000000
lattice_vector     -7.90633915     13.69010115      0.00000000
lattice_vector      0.00000000      0.00000000     99.93885963
atom       0.00990895      0.90490143      2.59909938 W
atom       1.59405703      1.80403124      4.17220216 S
atom       1.59326438      1.80060570      1.02338410 S
atom      -1.54996967      3.66242797      2.59824364 W
atom       0.04878712      4.58495538      4.15831790 S
atom       0.04658622      4.58449811      1.03491706 S
atom      -3.15880451      6.39157760      2.59949781 W
atom      -1.58865547      7.31373051      4.17333057 S
atom      -1.59088076      7.31486359      1.02440736 S
atom      -4.72605821      9.13400987      2.60016827 W
atom      -3.15210032     10.04734227      4.18225188 S
atom      -3.15255199     10.04725175      1.01742022 S
atom      -6.30425754     11.86679973      2.60001542 W
atom      -4.72630830     12.77368630      4.18184194 S
atom      -4.72653665     12.77231349      1.01702155 S
atom       3.17966790      0.89686290      2.59847899 W
atom       4.76510683      1.80276831      4.17306012 S
atom       4.76610246      1.80170627      1.02414385 S
atom       1.63996290      3.63395598      2.59522426 W
atom       3.17949653      4.52213729      4.16610085 S
atom       3.17940126      4.51345942      1.02148185 S
atom       0.01974738      6.43892536      2.59676579 W
atom       1.55602379      7.32963798      4.17073234 S
atom       1.55403871      7.33024024      1.02617962 S
atom      -1.58125124      9.14039406      2.59959032 W
atom      -0.00482091     10.06121708      4.17460913 S
atom      -0.00351301     10.06078380      1.02567354 S
atom      -3.14849680     11.86682809      2.59970766 W
atom      -1.56867089     12.77924136      4.18153192 S
atom      -1.56822384     12.77871866      1.01796090 S
atom       6.34935136      0.90487963      2.59942653 W
atom       7.92127370      1.83361972      4.17742800 S
atom       7.92174566      1.83391378      1.02236063 S
atom       4.71887912      3.63376001      2.59814252 W
atom       6.31042074      4.58355018      4.16216525 S
atom       6.31123304      4.58559336      1.03868263 S
atom       4.80711758      7.33221784      4.17943250 S
atom       4.79813481      7.32703928      1.03480091 S
atom       1.55885170      9.10504424      2.60145509 W
atom       3.17776933     10.00896505      4.16420488 S
atom       3.17914144     10.00733568      1.04075213 S
atom       0.01019197     11.88115208      2.60004003 W
atom       1.60040070     12.77843033      4.17794993 S
atom       1.60128810     12.77778867      1.02291488 S
atom       9.50325977      0.91646013      2.60005953 W
atom      11.08431363      1.82925951      4.17718012 S
atom      11.08408742      1.82898072      1.02267844 S
atom       7.90853540      3.66232748      2.60018595 W
atom       9.49871597      4.56527516      4.17773719 S
atom       9.49827351      4.56580578      1.02268028 S
atom       6.33803566      6.43866593      2.60289607 W
atom       7.94857064      7.31412985      4.17619113 S
atom       7.94632654      7.31416854      1.02729875 S
atom       4.79807835      9.10479286      2.60443460 W
atom       6.36221114     10.06208826      4.17659538 S
atom       6.35997780     10.05964405      1.02778482 S
atom       3.17817872     11.85286757      2.60123703 W
atom       4.75568633     12.77872355      4.17821139 S
atom       4.75528841     12.77744922      1.02314499 S
atom      12.66523349      0.91645877      2.59990285 W
atom      14.24735151      1.83447654      4.17660125 S
atom      14.24649893      1.83316200      1.02154363 S
atom      11.08392181      3.65457034      2.59980639 W
atom      12.66994588      4.56543331      4.17672745 S
atom      12.66856312      4.56574379      1.02167187 S
atom       9.51662672      6.39150148      2.60063766 W
atom      11.08413399      7.30950998      4.18188312 S
atom      11.08289018      7.30968787      1.01830902 S
atom       7.93839081      9.14029178      2.60167873 W
atom       9.51001486     10.04768254      4.18300433 S
atom       9.50871057     10.04679404      1.01821869 S
atom       6.34624603     11.88113869      2.60082544 W
atom       7.92530675     12.77977199      4.18176356 S
atom       7.92443543     12.77812667      1.01821403 S
# 
# What follows is the current estimated Hessian matrix constructed by the BFGS algorithm.
# This is NOT the true Hessian matrix of the system.
# If you do not want this information here, switch it off using the "hessian_to_restart_geometry" keyword.
# 
trust_radius             0.0011549658
hessian_file
