#=======================================================
# FHI-aims file: geometry_monolayer.in
# Created using the Atomic Simulation Environment (ASE)
# Wed Jun  2 16:14:27 2021
#=======================================================
lattice_vector 3.3100000000000001 0.0000000000000000 0.0000000000000000 
lattice_vector -1.6550000000000000 2.8665440865264920 0.0000000000000000 
lattice_vector 0.0000000000000000 -0.0000000000000000 5.3300000000000001 
atom 0.0000000000000001 0.9555146955088307 2.6650000000000000 W
atom 1.6549999999999998 1.9110293910176614 4.3300000000000001 Se
atom 1.6549999999999998 1.9110293910176614 1.0000000000000000 Se
