# 
# This is the geometry file that corresponds to the current relaxation step.
# If you do not want this file to be written, set the "write_restart_geometry" flag to .false.
#  aims_uuid : 02920709-DFBF-4092-A3B2-B8A7AD15A173                                
# 
  set_vacuum_level        54.010642
lattice_vector     15.66599045      0.00000000      0.00000000
lattice_vector     -7.83292280     13.56702030      0.00000000
lattice_vector      0.00000000      0.00000000     99.99930752
atom       1.56591926      0.90424180      3.07942775 Mo
atom      -0.00104148      1.80975417      4.62321027 S
atom       0.00017304      1.80511217      1.53123709 S
atom       0.00239507      3.61493858      3.07357809 Mo
atom      -1.56591484      4.52311112      4.61885850 S
atom      -1.56664577      4.52268678      1.53009854 S
atom      -1.56826560      6.33540217      3.07357609 Mo
atom      -3.13332457      7.23501714      4.62319875 S
atom      -3.13671302      7.23840158      1.53122547 S
atom      -3.13402273      9.04481603      3.07942692 Mo
atom      -4.69974296      9.94893608      4.62657144 S
atom      -4.69974356      9.95088486      1.53483845 S
atom      -4.69973650     11.75848267      3.08151509 Mo
atom      -6.26684921     12.66324604      4.62657505 S
atom      -6.26517831     12.66226350      1.53484936 S
atom       4.70048366      0.90424381      3.07942629 Mo
atom       3.13320816      1.81459887      4.62211905 S
atom       3.13320703      1.80641071      1.53369515 S
atom       3.13321675      3.62159325      3.07234046 Mo
atom       1.56372234      4.52659019      4.61759212 S
atom       1.56391239      4.50692429      1.51661588 S
atom       1.54033636      6.31647941      3.05682621 Mo
atom       0.00194347      7.23166768      4.61758920 S
atom      -0.01499243      7.24170473      1.51663401 S
atom       0.00293309      9.04341965      3.07237804 Mo
atom      -1.56198701      9.94689996      4.62214473 S
atom      -1.56904366      9.95099200      1.53370460 S
atom      -1.56672226     11.75937514      3.07944348 Mo
atom      -3.13260763     12.66324614      4.62657194 S
atom      -3.13428047     12.66226327      1.53484975 S
atom       7.83317707      0.90494926      3.07721170 Mo
atom       6.26745925      1.80975402      4.62320785 S
atom       6.26624373      1.80511198      1.53123438 S
atom       6.26403453      3.61493902      3.07357530 Mo
atom       4.70272394      4.52658886      4.61759056 S
atom       4.70253180      4.50692513      1.51661353 S
atom       4.72612526      6.31647850      3.05682531 Mo
atom       3.13323749      7.23604037      4.55945044 S
atom       3.13323439      7.23585825      6.47982571 S
atom       3.13323718      7.23611826      1.53909406 S
atom       3.13324376      9.07537268      3.05688753 Mo
atom       1.57146676      9.95007224      4.61764164 S
atom       1.55435086      9.95976337      1.51668002 S
atom       1.56256862     11.75808436      3.07363829 Mo
atom       0.00094551     12.66364486      4.62325144 S
atom      -0.00364656     12.66487452      1.53124759 S
atom      10.96619554      0.90518918      3.07521872 Mo
atom       9.40045119      1.80983158      4.62152762 S
atom       9.39917603      1.80906451      1.53030855 S
atom       9.39991374      3.61811075      3.07518724 Mo
atom       7.83235987      4.52310988      4.61885696 S
atom       7.83309122      4.52268714      1.53009646 S
atom       7.83472537      6.33540107      3.07357575 Mo
atom       6.26453170      7.23166826      4.61758968 S
atom       6.28146733      7.24170477      1.51663351 S
atom       6.26355573      9.04341780      3.07237952 Mo
atom       4.69503629      9.95007105      4.61764319 S
atom       4.71215255      9.95976485      1.51668237 S
atom       4.70394787     11.75808547      3.07364073 Mo
atom       3.13326517     12.66217049      4.61891425 S
atom       3.13326673     12.66298807      1.53015653 S
atom      14.09921728      0.90494853      3.07721424 Mo
atom      12.53195455      1.80983049      4.62152842 S
atom      12.53323191      1.80906348      1.53031070 S
atom      12.53250873      3.61810986      3.07518870 Mo
atom      10.96621747      4.52175879      4.62151853 S
atom      10.96621863      4.52323537      1.53027822 S
atom      10.96622528      6.33147805      3.07718749 Mo
atom       9.39979791      7.23501731      4.62319828 S
atom       9.40318657      7.23840250      1.53122621 S
atom       9.40051301      9.04481656      3.07942756 Mo
atom       7.82848932      9.94690018      4.62214512 S
atom       7.83554586      9.95099350      1.53370780 S
atom       7.83324234     11.75937801      3.07944577 Mo
atom       6.26558592     12.66364300      4.62325381 S
atom       6.27017836     12.66487319      1.53125065 S
# 
# What follows is the current estimated Hessian matrix constructed by the BFGS algorithm.
# This is NOT the true Hessian matrix of the system.
# If you do not want this information here, switch it off using the "hessian_to_restart_geometry" keyword.
# 
trust_radius             0.0027204897
hessian_file
