#
# temporary structure-file for finite-difference calculation of forces
# displacement  -0.0025 of \# atom    12 direction     2
#
lattice_vector   15.69941243   -0.00066385   -0.00653398
lattice_vector   -7.85022264   13.59569427   -0.00908851
lattice_vector    0.00014649    0.00034546   99.03123335
atom    0.00027709    0.92127814    2.57397835   W
atom    1.57053268    1.84141774    4.15214103   S
atom    1.56922557    1.83855951    0.99285772   S
atom   -1.54930076    3.65808259    2.57214493   W
atom    0.04171081    4.63541123    4.14928225   S
atom    0.04040616    4.63253599    0.99191744   S
atom   -3.10150835    6.34639269    2.57034468   W
atom   -1.46037227    7.23691303    4.14749748   S
atom   -1.46168344    7.23403462    0.99020179   S
atom   -4.69709552    9.05667524    2.56853911   W
atom   -3.11584450    9.95781900    4.14668689   S
atom   -3.11716174    9.95494592    0.98743237   S
atom   -6.28024391   11.78296223    2.56422082   W
atom   -4.70401047   12.69388566    4.14400715   S
atom   -4.70532672   12.69102432    0.98647501   S
atom    3.13948944    0.92114792    2.57267997   W
atom    4.70460288    1.83565302    4.15319677   S
atom    4.70326931    1.83279061    0.98918799   S
atom    1.56977326    3.67515617    2.57083982   W
atom    3.09918595    4.63524051    4.14797884   S
atom    3.09786677    4.63236629    0.99067665   S
atom    0.15584482    6.43457861    2.56891063   W
atom   -1.52707686    9.03873989    2.56723247   W
atom    0.06824714    9.88461323    4.14444666   S
atom    0.06693477    9.88172821    0.98714488   S
atom   -3.12760893   11.77506968    2.56541112   W
atom   -1.55384944   12.67463256    4.14591931   S
atom   -1.55517862   12.67175722    0.98194123   S
atom    6.27634654    0.90419893    2.57136973   W
atom    7.84803230    1.81253103    4.15229187   S
atom    7.84670732    1.80966326    0.98748426   S
atom    4.68890167    3.65779892    2.56954921   W
atom    6.26694289    4.54067036    4.15014037   S
atom    6.26561465    4.53779507    0.98602363   S
atom    2.98355875    6.43443554    2.56773329   W
atom    4.60106327    7.23665337    4.14496994   S
atom    4.59974729    7.23377052    0.98767832   S
atom    1.56957289    8.88328080    2.56608811   W
atom    3.07218366    9.88442449    4.14323094   S
atom    3.07086394    9.88153689    0.98585918   S
atom    0.01736579   11.74839352    2.56411222   W
atom    1.57012317   12.67501627    4.14467622   S
atom    1.56880847   12.67214334    0.98056461   S
atom    9.41960494    0.89913167    2.57005946   W
atom   10.99248550    1.81238627    4.15098990   S
atom   10.99117084    1.80952481    0.98617604   S
atom    7.84360345    3.62860093    2.56824597   W
atom    9.42017432    4.53548506    4.14917514   S
atom    9.41885945    4.53261747    0.98436461   S
atom    6.24092258    6.34599572    2.56645086   W
atom    7.82840227    7.24618132    4.14696997   S
atom    7.82708532    7.24330314    0.98297142   S
atom    4.66621298    9.03847454    2.56465037   W
atom    6.25629268    9.95740773    4.14278193   S
atom    6.25497981    9.95452743    0.98352246   S
atom    3.12154471   11.74821691    2.56281805   W
atom    4.69407659   12.67433080    4.14330925   S
atom    4.69276455   12.67145927    0.97933932   S
atom   12.56284130    0.90391412    2.56875163   W
atom   14.13589411    1.83525374    4.14926393   S
atom   14.13458800    1.83239285    0.98526392   S
atom   10.99543469    3.62846307    2.56693824   W
atom   12.57339076    4.54040357    4.14752762   S
atom   12.57208464    4.53753043    0.98339813   S
atom    9.41942150    6.34805504    2.56512516   W
atom   11.01172529    7.24605035    4.14565284   S
atom   11.01041525    7.24317127    0.98164617   S
atom    7.83624815    9.05614109    2.56331811   W
atom    9.41993004    9.96449540    4.14060027   S
atom    9.41861946    9.96162597    0.98307541   S
atom    6.26653021   11.77465048    2.56149036   W
atom    7.84422955   12.69334779    4.13877227   S
atom    7.84292806   12.69048568    0.98124585   S
