#=======================================================
# FHI-aims file: ./geometry.in
# Created using the Atomic Simulation Environment (ASE)
# Wed Jul  7 09:14:26 2021
#=======================================================
lattice_vector 3.0823436599999998 0.0000000000000000 0.0000000000000000 
lattice_vector 0.0000000000000000 3.0823436599999998 0.0000000000000000 
lattice_vector 0.0000000000000000 0.0000000000000000 3.0823436599999998 
atom_frac 0.0032442845779241 0.0000000000000000 0.0000000000000000 Mo
atom_frac 0.4999999999999998 0.4999999999999998 0.4999999999999998 Mo
