# 
# This is the geometry file that corresponds to the current relaxation step.
# If you do not want this file to be written, set the "write_restart_geometry" flag to .false.
#  aims_uuid : CFAB62B8-4644-4CB4-ADE2-D17417118700                                
# 
  set_vacuum_level        52.393767
lattice_vector     16.44347560      0.00000000      0.00000000
lattice_vector     -8.22357185     14.23911350      0.00000000
lattice_vector      0.00000000      0.00000000     99.63748923
atom      -0.01845815      0.92667602      2.67194936 W
atom       1.62492893      1.91002335      4.34026460 Se
atom       1.62492800      1.86543527      0.97344659 Se
atom      -1.65210698      3.78479866      2.66925764 W
atom       0.03704559      4.81872898      4.30422270 Se
atom      -0.03367764      4.73583602      0.94146552 Se
atom      -3.28520652      6.61255667      2.66923967 W
atom      -1.54518577      7.55822423      4.30419527 Se
atom      -1.65220452      7.53844379      0.94145751 Se
atom      -4.94436951      9.45593861      2.67195158 W
atom      -3.27092653     10.38729121      4.34025853 Se
atom      -3.30953993     10.40957552      0.97347404 Se
atom      -6.59822241     12.30795766      2.67257151 W
atom      -4.95035667     13.25925550      4.35642905 Se
atom      -4.95052358     13.25914562      0.98874038 Se
atom       3.26841583      0.92665566      2.67195845 W
atom       4.89856182      1.88677451      4.36520189 Se
atom       4.92015991      1.87127773      0.99364901 Se
atom       1.62458551      3.80129977      2.62556300 W
atom       3.21209864      4.81863632      4.30421003 Se
atom       3.28278603      4.73585961      0.94153922 Se
atom       0.09089149      6.67636359      2.56258620 W
atom       1.62422369      7.56153872      0.77124139 Se
atom      -1.63281271      9.44169445      2.62557305 W
atom       0.04203306     10.30773915      4.30419128 Se
atom       0.00563600     10.41036033      0.94145277 Se
atom      -3.30130050     12.30218169      2.67196174 W
atom      -1.65466305     13.23371850      4.36519739 Se
atom      -1.65729878     13.26015385      0.99365346 Se
atom       6.55518336      0.91502814      2.69056962 W
atom       8.19734312      1.86304465      4.38233181 Se
atom       8.20405110      1.86689714      1.01043805 Se
atom       4.90137057      3.78477440      2.66927196 W
atom       6.53552269      4.72648426      4.36952525 Se
atom       6.56257596      4.71086029      0.99438557 Se
atom       3.15757850      6.67637534      2.56265663 W
atom       4.79358223      7.55822501      4.30422379 Se
atom       4.90060407      7.53844252      0.94151882 Se
atom       1.62388146      9.33204757      2.56255986 W
atom       3.20557731     10.30763094      4.30423629 Se
atom       3.24201924     10.41036150      0.94143216 Se
atom      -0.00921639     12.28746864      2.66925769 W
atom       1.62344891     13.23172904      4.36953388 Se
atom       1.62346406     13.26294943      0.99437799 Se
atom       9.84674119      0.91146446      2.69574588 W
atom      11.49601160      1.86305343      4.38233470 Se
atom      11.48930238      1.86690071      1.01042729 Se
atom       8.19750668      3.76711892      2.69574397 W
atom       9.84631771      4.71950379      4.38231983 Se
atom       9.84631216      4.71173993      1.01042717 Se
atom       6.53375234      6.61253702      2.66926671 W
atom       8.17597522      7.56416553      4.36519650 Se
atom       8.20016464      7.55320827      0.99363884 Se
atom       4.88058839      9.44172613      2.62557032 W
atom       6.51858789     10.38728596      4.34026693 Se
atom       6.55718661     10.40956745      0.97344696 Se
atom       3.25621326     12.28744360      2.66927365 W
atom       4.90157646     13.23369171      4.36519692 Se
atom       4.90419104     13.26013425      0.99365735 Se
atom      13.13825729      0.91501513      2.69056976 W
atom      14.79478311      1.88679767      4.36519512 Se
atom      14.77317435      1.87129176      0.99364166 Se
atom      11.49524322      3.76711888      2.69574111 W
atom      13.15709875      4.72650133      4.36951651 Se
atom      13.13005219      4.71085743      0.99438341 Se
atom       9.84600538      6.61564093      2.69055148 W
atom      11.51590567      7.56416937      4.36518845 Se
atom      11.49170936      7.55322476      0.99363335 Se
atom       8.19214049      9.45594966      2.67194908 W
atom       9.84556104     10.40524449      4.35642611 Se
atom       9.84556377     10.40544231      0.98873028 Se
atom       6.54831357     12.30214877      2.67195175 W
atom       8.19725612     13.25925902      4.35641170 Se
atom       8.19742414     13.25914785      0.98873738 Se
# 
# What follows is the current estimated Hessian matrix constructed by the BFGS algorithm.
# This is NOT the true Hessian matrix of the system.
# If you do not want this information here, switch it off using the "hessian_to_restart_geometry" keyword.
# 
trust_radius             0.0002602264
hessian_file
