# 
# This is the geometry file that corresponds to the current relaxation step.
# If you do not want this file to be written, set the "write_restart_geometry" flag to .false.
#  aims_uuid : 017E2ACD-C653-4E6E-AA66-F11EEBFD4DEF                                
# 
  set_vacuum_level        53.543447
lattice_vector     16.44347560      0.00000000      0.00000000
lattice_vector     -8.22357185     14.23911350      0.00000000
lattice_vector      0.00000000      0.00000000     99.63748923
atom       0.02812858      0.99629699      2.65560966 W
atom       1.67450497      1.94669647      4.34041608 Se
atom       1.67426866      1.94661273      0.97038628 Se
atom      -1.61540328      3.84341226      2.65736746 W
atom       0.02782192      4.79262006      4.34681348 Se
atom       0.02536676      4.79563217      0.96860344 Se
atom      -3.25751804      6.69120112      2.65952930 W
atom      -1.61586282      7.64167749      4.34986356 Se
atom      -1.61577400      7.64333497      0.97137335 Se
atom      -4.90484344      9.54336915      2.65961730 W
atom      -3.26069368     10.48977707      4.34986588 Se
atom      -3.25929862     10.48891352      0.97138211 Se
atom      -6.55074392     12.38894224      2.65749623 W
atom      -4.90693212     13.33729311      4.34682093 Se
atom      -4.90572853     13.33356517      0.96857703 Se
atom       3.32369860      0.99302775      2.65471467 W
atom       4.95858998      1.94522166      4.35089443 Se
atom       4.95895260      1.93068971      0.95079128 Se
atom       1.67279391      3.85168468      2.65478186 W
atom       3.31498589      4.79112393      4.35102482 Se
atom       3.30251195      4.79897401      0.95093402 Se
atom       0.02609444      6.69117860      2.65963616 W
atom       1.67784333      7.63897177      4.34274501 Se
atom       1.67252140      7.64207716      0.97488799 Se
atom      -1.61613663      9.54044100      2.66126537 W
atom       0.02827638     10.48982087      4.34988261 Se
atom       0.02690934     10.48886972      0.97135059 Se
atom      -3.26338265     12.38678350      2.65955820 W
atom      -1.61652225     13.34330434      4.34254986 Se
atom      -1.61658460     13.33693813      0.97468060 Se
atom       6.60672718      1.00737117      2.65463974 W
atom       8.25487054      1.94523685      4.35069528 Se
atom       8.25430419      1.93055996      0.95057340 Se
atom       4.91279475      3.81630576      2.64198046 W
atom       6.60656817      4.79370690      4.23706260 Se
atom       6.60798001      4.79211945      6.50058698 Se
atom       6.60626625      4.79403722      1.00306237 Se
atom       3.32635828      6.68738982      2.65495551 W
atom       4.96271472      7.64551002      4.35110461 Se
atom       4.94978993      7.65244649      0.95105500 Se
atom       1.67255500      9.54337041      2.65966033 W
atom       3.31751452     10.49130074      4.34689137 Se
atom       3.31374631     10.49189073      0.96864215 Se
atom       0.03035720     12.38676718      2.65949178 W
atom       1.67383723     13.33734537      4.34667808 Se
atom       1.67260803     13.33345660      0.96842430 Se
atom       9.88976165      0.99300889      2.65446409 W
atom      11.53878526      1.94671462      4.34016193 Se
atom      11.53911566      1.94655198      0.97015573 Se
atom       8.30005827      3.81626505      2.64166497 W
atom       9.89770266      4.79108740      4.35075281 Se
atom       9.91016906      4.79901532      0.95063100 Se
atom       6.60601186      6.74937153      2.64209984 W
atom       8.24925528      7.64547809      4.35104515 Se
atom       8.26201403      7.65247911      0.95095876 Se
atom       4.95504120      9.53744043      2.65488735 W
atom       6.60557516     10.48866647      4.34053776 Se
atom       6.60555323     10.48886028      0.97048606 Se
atom       3.31776529     12.38893559      2.65740676 W
atom       4.96173372     13.33810110      4.34521387 Se
atom       4.96068848     13.33730336      0.96726262 Se
atom      13.18533666      0.99625753      2.65547849 W
atom      14.82835961      1.94515787      4.34518458 Se
atom      14.82847479      1.94645455      0.96721560 Se
atom      11.53997909      3.85168978      2.65449666 W
atom      13.18467438      4.79262140      4.34667353 Se
atom      13.18736796      4.79566646      0.96845885 Se
atom       9.88565044      6.68737919      2.65475063 W
atom      11.53397079      7.63891151      4.34261064 Se
atom      11.53937231      7.64213729      0.97476663 Se
atom       8.25621450      9.53743998      2.65485231 W
atom       9.89360935     10.49126333      4.34687541 Se
atom       9.89737632     10.49198521      0.96867076 Se
atom       6.60524013     12.38962182      2.65567388 W
atom       8.24858693     13.33805438      4.34533097 Se
atom       8.24971948     13.33733790      0.96730881 Se
# 
# What follows is the current estimated Hessian matrix constructed by the BFGS algorithm.
# This is NOT the true Hessian matrix of the system.
# If you do not want this information here, switch it off using the "hessian_to_restart_geometry" keyword.
# 
trust_radius             0.0010044336
hessian_file
