# 
# This is the geometry file that corresponds to the current relaxation step.
# If you do not want this file to be written, set the "write_restart_geometry" flag to .false.
#  aims_uuid : 8CFE31AC-6BB8-44AA-A981-BFE96623B649                                
# 
  set_vacuum_level        52.483745
lattice_vector     16.44347560      0.00000000      0.00000000
lattice_vector     -8.22357185     14.23911350      0.00000000
lattice_vector      0.00000000      0.00000000     99.63748923
atom       0.03498538      1.00443101      2.66500000 W
atom       1.68116815      1.94658573      4.35265329 Se
atom       1.68116815      1.94658573      0.97734671 Se
atom      -1.59259472      3.87274806      2.66500000 W
atom       0.06419834      4.82920617      4.34251657 Se
atom       0.06419834      4.82920617      0.98748343 Se
atom      -3.26359777      6.71587531      2.66500000 W
atom      -1.62458996      7.67028896      4.35272271 Se
atom      -1.62458996      7.67028896      0.97727729 Se
atom      -4.89150055      9.56397664      2.66500000 W
atom      -3.25212081     10.51489305      4.35587251 Se
atom      -3.25212081     10.51489305      0.97412749 Se
atom      -6.53518727     12.41009350      2.66500000 W
atom      -4.89188784     13.35421744      4.35587398 Se
atom      -4.89188784     13.35421744      0.97412602 Se
atom       3.33143140      1.00658088      2.66500000 W
atom       4.98155214      1.94653640      4.35268389 Se
atom       4.98155214      1.94653640      0.97731611 Se
atom       1.71169041      3.84615106      2.66500000 W
atom       3.33110555      4.80250388      4.33428228 Se
atom       3.33110555      4.80250388      0.99571772 Se
atom       0.03596392      6.74738184      2.66500000 W
atom       1.67398297      7.67131180      4.33426983 Se
atom       1.67398297      7.67131180      0.99573017 Se
atom      -1.61389742      9.56924354      2.66500000 W
atom       0.02519762     10.52815482      4.35272433 Se
atom       0.02519762     10.52815482      0.97727567 Se
atom      -3.24849146     12.41009474      2.66500000 W
atom      -1.60789479     13.35718097      4.36057811 Se
atom      -1.60789479     13.35718097      0.96942189 Se
atom       6.62779874      1.00440581      2.66500000 W
atom       8.26353963      1.97075463      4.35342188 Se
atom       8.26353963      1.97075463      0.97657812 Se
atom       4.95049931      3.84602646      2.66500000 W
atom       6.59771278      4.82906565      4.34256182 Se
atom       6.59771278      4.82906565      0.98743818 Se
atom       4.98708139      7.67106594      4.33431410 Se
atom       4.98708139      7.67106594      0.99568590 Se
atom       1.65491671      9.55183819      2.66500000 W
atom       3.33010062     10.48660971      4.34255541 Se
atom       3.33010062     10.48660971      0.98744459 Se
atom       0.03205236     12.42478669      2.66500000 W
atom       1.68691171     13.35807176      4.35339227 Se
atom       1.68691171     13.35807176      0.97660773 Se
atom       9.90893363      1.01946304      2.66500000 W
atom      11.55300361      1.96859492      4.35360853 Se
atom      11.55300361      1.96859492      0.97639147 Se
atom       8.25455115      3.87265189      2.66500000 W
atom       9.90603325      4.81601407      4.35341280 Se
atom       9.90603325      4.81601407      0.97658720 Se
atom       6.62520671      6.74715062      2.66500000 W
atom       8.28566698      7.67015655      4.35270933 Se
atom       8.28566698      7.67015655      0.97729067 Se
atom       5.00535570      9.55165548      2.66500000 W
atom       6.63505848     10.52805557      4.35267867 Se
atom       6.63505848     10.52805557      0.97732133 Se
atom       3.32982822     12.39963280      2.66500000 W
atom       4.97265439     13.35806557      4.35339221 Se
atom       4.97265439     13.35806557      0.97660779 Se
atom      13.19720635      1.01948572      2.66500000 W
atom      14.84253016      1.97079890      4.35340565 Se
atom      14.84253016      1.97079890      0.97659435 Se
atom      11.55271293      3.86696176      2.66500000 W
atom      13.19928053      4.81606669      4.35340211 Se
atom      13.19928053      4.81606669      0.97659789 Se
atom       9.92483173      6.71577622      2.66500000 W
atom      11.55229796      7.66963387      4.36057900 Se
atom      11.55229796      7.66963387      0.96942100 Se
atom       8.27437090      9.56912325      2.66500000 W
atom       9.91248961     10.51486324      4.35586584 Se
atom       9.91248961     10.51486324      0.97413416 Se
atom       6.62767581     12.42476921      2.66500000 W
atom       8.26755645     13.35716279      4.36057769 Se
atom       8.26755645     13.35716279      0.96942231 Se
# 
# What follows is the current estimated Hessian matrix constructed by the BFGS algorithm.
# This is NOT the true Hessian matrix of the system.
# If you do not want this information here, switch it off using the "hessian_to_restart_geometry" keyword.
# 
trust_radius             0.0003549217
hessian_file
