# 
# This is the geometry file that corresponds to the current relaxation step.
# If you do not want this file to be written, set the "write_restart_geometry" flag to .false.
#  aims_uuid : D4667DB2-3A66-4132-A522-24436D3804F2                                
# 
  set_vacuum_level        52.366320
lattice_vector     16.44347560      0.00000000      0.00000000
lattice_vector     -8.22357185     14.23911350      0.00000000
lattice_vector      0.00000000      0.00000000     99.63748923
atom      -0.05229662      0.91619105      2.66766759 W
atom       1.64183675      1.98453453      4.26579227 Se
atom       1.55707083      1.85056034      0.91406777 Se
atom      -1.63582176      3.78041275      2.68307189 W
atom       0.22019927      4.85192780      4.25368006 Se
atom      -0.05305030      4.69402630      0.88947273 Se
atom      -3.32523771      6.58345831      2.66765308 W
atom      -1.55287346      7.51628905      4.26569251 Se
atom      -1.71125102      7.50976263      0.91400750 Se
atom      -5.00772656      9.42238081      2.66435632 W
atom      -3.32564954     10.36103200      4.31890161 Se
atom      -3.37680466     10.37520241      0.95870259 Se
atom      -6.65767800     12.27923154      2.66434192 W
atom      -5.00368082     13.26633488      4.31895958 Se
atom      -5.01696177     13.21505266      0.95871900 Se
atom       3.21487708      0.92007206      2.60242909 W
atom       4.79987006      1.93164790      4.28166790 Se
atom       4.88388667      1.84620660      0.92348274 Se
atom       1.71129273      3.83682986      2.49438135 W
atom       3.24931693      4.69053422      0.69429268 Se
atom       0.08633593      6.65056074      2.49432916 W
atom       1.59475090      7.55549913      0.69414716 Se
atom      -1.68856558      9.41067499      2.60231920 W
atom      -0.01992496     10.27734756      4.28149959 Se
atom      -0.05202745     10.39290184      0.92324867 Se
atom      -3.36064679     12.27801765      2.64840732 W
atom      -1.72536500     13.22198035      4.34412939 Se
atom      -1.70898307     13.23156163      0.97355993 Se
atom       6.49746799      0.89680679      2.66007970 W
atom       8.12102558      1.83868196      4.37532570 Se
atom       8.16840706      1.83782134      1.00408908 Se
atom       4.74062018      3.79035465      2.53365077 W
atom       6.35203609      4.67571399      4.29894071 Se
atom       6.50212635      4.65784612      0.94189015 Se
atom       3.11154761      6.52125704      2.39483349 W
atom       4.58674819      7.37286067      4.23809038 Se
atom       4.83522696      7.51631387      0.86013921 Se
atom       1.56039320      9.29713221      2.53335076 W
atom       3.13276270     10.24971377      4.29878342 Se
atom       3.19246931     10.38874013      0.94161516 Se
atom      -0.06790236     12.26481500      2.65996061 W
atom       1.55962089     13.19974036      4.37522200 Se
atom       1.58252997     13.24134313      1.00397385 Se
atom       9.79619883      0.88709592      2.70864508 W
atom      11.44600062      1.83948329      4.40608669 Se
atom      11.45288222      1.84349720      1.03868192 Se
atom       8.12494708      3.73378494      2.68449176 W
atom       9.76807455      4.68756022      4.38759624 Se
atom       9.80421248      4.67309232      1.02203986 Se
atom       6.41412750      6.55187492      2.62037395 W
atom       8.06119606      7.49739460      4.34169932 Se
atom       8.13258300      7.51190441      0.99235596 Se
atom       4.78895028      9.36582827      2.62027005 W
atom       6.43138814     10.31926437      4.34162958 Se
atom       6.47975360     10.37380917      0.99227162 Se
atom       3.20306241     12.25596820      2.68432771 W
atom       4.85067463     13.20186379      4.38748522 Se
atom       4.85628626     13.24047946      1.02190952 Se
atom      13.09899607      0.89559999      2.72079529 W
atom      14.78453601      1.88150407      4.37855475 Se
atom      14.72635583      1.86084781      1.02091240 Se
atom      11.45461180      3.74288567      2.72084301 W
atom      13.15130809      4.70950502      4.37857611 Se
atom      13.10432537      4.66937904      1.02092407 Se
atom       9.77852782      6.57648655      2.69369824 W
atom      11.46002187      7.53112511      4.35893451 Se
atom      11.43240233      7.51147423      0.99752713 Se
atom       8.11651441      9.41082140      2.67538237 W
atom       9.78011795     10.37117026      4.34885543 Se
atom       9.77053704     10.36560795      0.98950882 Se
atom       6.49206499     12.26682245      2.69361207 W
atom       8.15964597     13.24554475      4.35889876 Se
atom       8.12891009     13.23147898      0.99752927 Se
# 
# What follows is the current estimated Hessian matrix constructed by the BFGS algorithm.
# This is NOT the true Hessian matrix of the system.
# If you do not want this information here, switch it off using the "hessian_to_restart_geometry" keyword.
# 
trust_radius             0.0005263581
hessian_file
