# 
# This is the geometry file that corresponds to the current relaxation step.
# If you do not want this file to be written, set the "write_restart_geometry" flag to .false.
#  aims_uuid : 69759BAD-5584-48A7-A0A0-BD38422F9111                                
# 
  set_vacuum_level        52.479173
lattice_vector     16.44347560      0.00000000      0.00000000
lattice_vector     -8.22357185     14.23911350      0.00000000
lattice_vector      0.00000000      0.00000000     99.63748923
atom      -0.00044711      0.94766366      2.66043214 W
atom       1.64384223      1.89687602      4.34858955 Se
atom       1.64382827      1.89686591      0.97225005 Se
atom      -1.64513817      3.79546461      2.66042240 W
atom      -0.00087046      4.74470541      4.34859127 Se
atom      -0.00087713      4.74469880      0.97223927 Se
atom      -3.28986283      6.64329810      2.66042247 W
atom      -1.64558411      7.59251416      4.34858979 Se
atom      -1.64559351      7.59251183      0.97224181 Se
atom      -4.93459133      9.49110333      2.66043255 W
atom      -3.29031176     10.44034136      4.34859553 Se
atom      -3.29032501     10.44033779      0.97224854 Se
atom      -6.57931162     12.33893303      2.66043833 W
atom      -4.93502351     13.28817930      4.34859200 Se
atom      -4.93504030     13.28816920      0.97225509 Se
atom       3.28823585      0.94764404      2.66041431 W
atom       4.93253204      1.89687281      4.34856916 Se
atom       4.93251992      1.89686793      0.97223741 Se
atom       1.64353043      3.79547307      2.66041368 W
atom       3.28782694      4.74470632      4.34857922 Se
atom       3.28782073      4.74470531      0.97223772 Se
atom      -0.00117795      6.64330664      2.66041183 W
atom       1.64310936      7.59251850      4.34857675 Se
atom       1.64310769      7.59251554      0.97224080 Se
atom      -1.64590973      9.49111701      2.66041479 W
atom      -0.00161497     10.44034155      4.34857902 Se
atom      -0.00161733     10.44033294      0.97224038 Se
atom      -3.29061133     12.33894393      2.66041650 W
atom      -1.64632865     13.28817875      4.34856908 Se
atom      -1.64633622     13.28817021      0.97224378 Se
atom       6.57692172      0.94766064      2.66040115 W
atom       8.22122080      1.89685588      4.34857005 Se
atom       8.22122447      1.89685899      0.97223702 Se
atom       4.93223573      3.79547191      2.66040299 W
atom       6.57651501      4.74468556      4.34857784 Se
atom       6.57651793      4.74469996      0.97223573 Se
atom       3.28751132      6.64329324      2.66041065 W
atom       4.93180269      7.59250333      4.34858632 Se
atom       4.93180832      7.59251365      0.97225115 Se
atom       1.64278378      9.49111152      2.66041098 W
atom       3.28707512     10.44032716      4.34858821 Se
atom       3.28708963     10.44032626      0.97225292 Se
atom      -0.00193917     12.33893111      2.66040650 W
atom       1.64235715     13.28816514      4.34857051 Se
atom       1.64237094     13.28815808      0.97224884 Se
atom       9.86562547      0.94763813      2.66040769 W
atom      11.50990514      1.89685584      4.34858983 Se
atom      11.50991942      1.89685451      0.97224397 Se
atom       8.22092190      3.79545479      2.66040695 W
atom       9.86519886      4.74468048      4.34859710 Se
atom       9.86520991      4.74469329      0.97223852 Se
atom       6.57621079      6.64328628      2.66041764 W
atom       8.22048450      7.59249112      4.34860846 Se
atom       8.22049266      7.59250844      0.97224929 Se
atom       4.93148188      9.49109290      2.66042693 W
atom       6.57575973     10.44031951      4.34862006 Se
atom       6.57577039     10.44032615      0.97225510 Se
atom       3.28677059     12.33893293      2.66042073 W
atom       4.93104228     13.28815662      4.34860619 Se
atom       4.93106148     13.28815185      0.97225787 Se
atom      13.15431258      0.94762818      2.66042648 W
atom      14.79861502      1.89686220      4.34857678 Se
atom      14.79861696      1.89685683      0.97227958 Se
atom      11.50962090      3.79545972      2.66041854 W
atom      13.15391084      4.74469685      4.34857376 Se
atom      13.15391273      4.74469830      0.97226968 Se
atom       9.86489391      6.64328552      2.66042630 W
atom      11.50919504      7.59250511      4.34857790 Se
atom      11.50919308      7.59251517      0.97227894 Se
atom       8.22016963      9.49110545      2.66043893 W
atom       9.86447398     10.44032765      4.34859203 Se
atom       9.86446919     10.44033228      0.97228724 Se
atom       6.57546955     12.33891796      2.66044118 W
atom       8.21975596     13.28816879      4.34858354 Se
atom       8.21975467     13.28816252      0.97229725 Se
# 
# What follows is the current estimated Hessian matrix constructed by the BFGS algorithm.
# This is NOT the true Hessian matrix of the system.
# If you do not want this information here, switch it off using the "hessian_to_restart_geometry" keyword.
# 
trust_radius             0.0003551996
hessian_file
