# 
# This is the geometry file that corresponds to the current relaxation step.
# If you do not want this file to be written, set the "write_restart_geometry" flag to .false.
#  aims_uuid : 248D7919-AC18-46F9-AF7F-239ACB72F744                                
# 
  set_vacuum_level        52.484009
lattice_vector     16.44347560      0.00000000      0.00000000
lattice_vector     -8.22357185     14.23911350      0.00000000
lattice_vector      0.00000000      0.00000000     99.63748923
atom      -0.03353056      0.90912088      2.66552309 W
atom       1.60884252      1.87313250      4.34875370 Se
atom       1.60878565      1.87306158      0.98215835 Se
atom      -1.65315701      3.78022562      2.66549562 W
atom       0.01566950      4.81327184      4.34035302 Se
atom       0.01559798      4.81330616      0.99057874 Se
atom      -3.27560246      6.58946111      2.66557285 W
atom      -1.54642010      7.51796376      4.34036907 Se
atom      -1.54648481      7.51800913      0.99073153 Se
atom      -4.95307357      9.42728498      2.66564843 W
atom      -3.29684953     10.36739364      4.34885527 Se
atom      -3.29690104     10.36733691      0.98233025 Se
atom      -6.61435253     12.28236271      2.66561993 W
atom      -4.96318610     13.23560559      4.34580163 Se
atom      -4.96324282     13.23549018      0.98528015 Se
atom       3.25126117      0.90911776      2.66545327 W
atom       4.88903797      1.86732532      4.34911471 Se
atom       4.88907039      1.86730200      0.98179181 Se
atom       1.60842118      3.79338127      2.66543703 W
atom       3.20122163      4.81320587      4.34024451 Se
atom       3.20124601      4.81329971      0.99065590 Se
atom       0.20016484      6.72316831      2.66548903 W
atom      -1.63360044      9.40726916      2.66558799 W
atom       0.04601333     10.27667308      4.34042054 Se
atom       0.04605210     10.27665883      0.99077840 Se
atom      -3.31099876     12.27167589      2.66556605 W
atom      -1.66218176     13.21085396      4.34917974 Se
atom      -1.66214429     13.21078266      0.98190049 Se
atom       6.53621633      0.88781523      2.66549445 W
atom       8.18276859      1.83838163      4.34988362 Se
atom       8.18284713      1.83838445      0.98119013 Se
atom       4.87016670      3.78017213      2.66545152 W
atom       6.52499303      4.69759276      4.35032882 Se
atom       6.52507340      4.69769783      0.98073568 Se
atom       3.01598604      6.72320749      2.66553419 W
atom       4.76250714      7.51796906      4.34040397 Se
atom       4.76257932      7.51808624      0.99082279 Se
atom       1.60779095      9.16157235      2.66561649 W
atom       3.16930541     10.27658043      4.34056811 Se
atom       3.16936352     10.27660755      0.99078238 Se
atom      -0.01465338     12.23835729      2.66559358 W
atom       1.60730318     13.21273914      4.35043891 Se
atom       1.60737672     13.21270150      0.98081481 Se
atom       9.83062261      0.88268695      2.66558999 W
atom      11.47832394      1.83839151      4.34994856 Se
atom      11.47834185      1.83836364      0.98123632 Se
atom       8.17855456      3.74316721      2.66554547 W
atom       9.83018038      4.69205243      4.34993399 Se
atom       9.83019985      4.69212386      0.98123754 Se
atom       6.49186612      6.58949945      2.66559601 W
atom       8.15780921      7.52974880      4.34928829 Se
atom       8.15783019      7.52983062      0.98203813 Se
atom       4.84910824      9.40733760      2.66568155 W
atom       6.51224364     10.36739103      4.34900427 Se
atom       6.51225605     10.36738350      0.98242179 Se
atom       3.22940701     12.23831858      2.66567578 W
atom       4.87680239     13.21081446      4.34929740 Se
atom       4.87680961     13.21074898      0.98205235 Se
atom      13.12499294      0.88780310      2.66560769 W
atom      14.77208334      1.86737491      4.34920734 Se
atom      14.77202017      1.86729424      0.98189893 Se
atom      11.48193287      3.74315934      2.66559320 W
atom      13.13535040      4.69761683      4.35037649 Se
atom      13.13530382      4.69763538      0.98072946 Se
atom       9.82987338      6.59333646      2.66564220 W
atom      11.50180003      7.52977135      4.34925979 Se
atom      11.50175007      7.52980832      0.98198941 Se
atom       8.16853371      9.42726830      2.66571080 W
atom       9.82947387     10.37591123      4.34591275 Se
atom       9.82941750     10.37586014      0.98541568 Se
atom       6.52576173     12.27166816      2.66570245 W
atom       8.17790150     13.23562522      4.34586327 Se
atom       8.17784064     13.23551468      0.98538316 Se
# 
# What follows is the current estimated Hessian matrix constructed by the BFGS algorithm.
# This is NOT the true Hessian matrix of the system.
# If you do not want this information here, switch it off using the "hessian_to_restart_geometry" keyword.
# 
trust_radius             0.0003965569
hessian_file
