
lattice_vector     19.320000000      0.00000000      0.00000000
lattice_vector     -8.21087587    17.2512      0.00000000
lattice_vector      0.00000000      0.00000000    100.00000000
       atom_frac         0.03331680        0.06668303        0.02664993  Mo
       atom_frac         0.16667595        0.13332472        0.04344063  Se
       atom_frac         0.16667885        0.13332463        0.00985922  Se
       atom_frac         0.03331241        0.26668668        0.02665007  Mo
       atom_frac         0.16667955        0.33332441        0.04344055  Se
       atom_frac         0.16668069        0.33332474        0.00985949  Se
       atom_frac         0.03329979        0.46667725        0.02665031  Mo
       atom_frac         0.16668024        0.53332444        0.04344047  Se
       atom_frac         0.16667828        0.53332468        0.00985942  Se
       atom_frac         0.03330618        0.66668839        0.02665032  Mo
       atom_frac         0.16667626        0.73332339        0.04344030  Se
       atom_frac         0.16667426        0.73332327        0.00985932  Se
       atom_frac         0.03331663        0.86668473        0.02665009  Mo
       atom_frac         0.16667577        0.93332521        0.04344050  Se
       atom_frac         0.16667639        0.93332486        0.00985908  Se
       atom_frac         0.23331385        0.06668296        0.02665026  Mo
       atom_frac         0.36667276        0.13332270        0.04344047  Se
       atom_frac         0.36666991        0.13332237        0.00985932  Se
       atom_frac         0.23331775        0.26668036        0.02665013  Mo
       atom_frac         0.36667564        0.33332605        0.04344031  Se
       atom_frac         0.36667539        0.33332574        0.00985935  Se
       atom_frac         0.23330908        0.46668979        0.02665008  Mo
       atom_frac         0.36667782        0.53332433        0.04344048  Se
       atom_frac         0.36668027        0.53332441        0.00985930  Se
       atom_frac         0.23331652        0.66668819        0.02665018  Mo
       atom_frac         0.36668019        0.73332471        0.04344049  Se
       atom_frac         0.36668110        0.73332495        0.00985948  Se
       atom_frac         0.23330856        0.86668194        0.02665028  Mo
       atom_frac         0.36667572        0.93332373        0.04344035  Se
       atom_frac         0.36667368        0.93332370        0.00985963  Se
       atom_frac         0.43331837        0.06668966        0.02665004  Mo
       atom_frac         0.56667890        0.13332500        0.04344032  Se
       atom_frac         0.56668077        0.13332503        0.00985976  Se
       atom_frac         0.43331098        0.26667171        0.02665011  Mo
       atom_frac         0.56667541        0.33332483        0.04344044  Se
       atom_frac         0.56667381        0.33332484        0.00985975  Se
       atom_frac         0.43330850        0.46667917        0.02665023  Mo
       atom_frac         0.56667442        0.53332191        0.04344029  Se
       atom_frac         0.56667095        0.53332178        0.00985963  Se
       atom_frac         0.43329993        0.66668059        0.02665018  Mo
       atom_frac         0.56667611        0.73332487        0.04344019  Se
       atom_frac         0.56667568        0.73332463        0.00985945  Se
       atom_frac         0.43330982        0.86669212        0.02665009  Mo
       atom_frac         0.56667890        0.93332366        0.04344034  Se
       atom_frac         0.56668170        0.93332358        0.00985941  Se
       atom_frac         0.63331651        0.06668949        0.02665022  Mo
       atom_frac         0.76668007        0.13332530        0.04344048  Se
       atom_frac         0.76667990        0.13332497        0.00985907  Se
       atom_frac         0.63332202        0.26670033        0.02664997  Mo
       atom_frac         0.76667692        0.33332334        0.04344058  Se
       atom_frac         0.76667994        0.33332316        0.00985922  Se
       atom_frac         0.63333936        0.46669401        0.02664986  Mo
       atom_frac         0.76667657        0.53332473        0.04344090  Se
       atom_frac         0.76667878        0.53332476        0.00985936  Se
       atom_frac         0.63332528        0.66668390        0.02665006  Mo
       atom_frac         0.76667875        0.73332363        0.04344080  Se
       atom_frac         0.76667673        0.73332382        0.00985949  Se
       atom_frac         0.63331748        0.86668810        0.02665027  Mo
       atom_frac         0.76667975        0.93332490        0.04344055  Se
       atom_frac         0.76667613        0.93332483        0.00985930  Se
       atom_frac         0.83329336        0.06667930        0.02665017  Mo
       atom_frac         0.96667993        0.13332396        0.04344026  Se
       atom_frac         0.96667791        0.13332426        0.00985982  Se
       atom_frac         0.83329586        0.26668617        0.02665033  Mo
       atom_frac         0.96667959        0.33332214        0.04344027  Se
       atom_frac         0.96667722        0.33332216        0.00985938  Se
       atom_frac         0.83330087        0.46668311        0.02665015  Mo
       atom_frac         0.96667858        0.53332639        0.04344005  Se
       atom_frac         0.96667931        0.53332614        0.00985949  Se
       atom_frac         0.83331151        0.66668350        0.02664986  Mo
       atom_frac         0.96667569        0.73332416        0.04344043  Se
       atom_frac         0.96667906        0.73332402        0.00985947  Se
       atom_frac         0.83330604        0.86667594        0.02664987  Mo
       atom_frac         0.96667750        0.93332444        0.04344042  Se
       atom_frac         0.96667948        0.93332465        0.00985983  Se

