#=======================================================
# FHI-aims file: geometry_supercell.in
# Created using the Atomic Simulation Environment (ASE)
# Wed Jun  2 16:14:27 2021
#=======================================================
lattice_vector 16.5500000000000007 0.0000000000000000 0.0000000000000000 
lattice_vector -8.2750000000000004 14.3327204326324598 0.0000000000000000 
lattice_vector 0.0000000000000000 0.0000000000000000 100.3300000000000001 
atom 0.0000000000000001 0.9555146955088306 2.6650000000000000 W
atom 1.6549999999999996 1.9110293910176612 4.3300000000000001 Se
atom 1.6549999999999996 1.9110293910176612 1.0000000000000000 Se
atom -1.6550000000000005 3.8220587820353225 2.6650000000000000 W
atom -0.0000000000000005 4.7775734775441538 4.3300000000000001 Se
atom -0.0000000000000005 4.7775734775441538 1.0000000000000000 Se
atom -3.3100000000000005 6.6886028685618149 2.6650000000000000 W
atom -1.6550000000000011 7.6441175640706449 4.3300000000000001 Se
atom -1.6550000000000011 7.6441175640706449 1.0000000000000000 Se
atom -4.9650000000000007 9.5551469550883077 2.6650000000000000 W
atom -3.3100000000000009 10.5106616505971395 4.3300000000000001 Se
atom -3.3100000000000009 10.5106616505971395 1.0000000000000000 Se
atom -6.6200000000000010 12.4216910416147979 2.6650000000000000 W
atom -4.9650000000000016 13.3772057371236297 4.3300000000000001 Se
atom -4.9650000000000016 13.3772057371236297 1.0000000000000000 Se
atom 3.3100000000000005 0.9555146955088306 2.6650000000000000 W
atom 4.9649999999999999 1.9110293910176612 4.3300000000000001 Se
atom 4.9649999999999999 1.9110293910176612 1.0000000000000000 Se
atom 1.6550000000000000 3.8220587820353225 2.6650000000000000 W
atom 3.3099999999999996 4.7775734775441538 4.3300000000000001 Se
atom 3.3099999999999996 4.7775734775441538 1.0000000000000000 Se
atom 0.0000000000000004 6.6886028685618149 2.6650000000000000 W
atom 1.6549999999999998 7.6441175640706449 4.3300000000000001 Se
atom 1.6549999999999998 7.6441175640706449 1.0000000000000000 Se
atom -1.6550000000000002 9.5551469550883077 2.6650000000000000 W
atom -0.0000000000000008 10.5106616505971395 4.3300000000000001 Se
atom -0.0000000000000008 10.5106616505971395 1.0000000000000000 Se
atom -3.3100000000000005 12.4216910416147979 2.6650000000000000 W
atom -1.6550000000000005 13.3772057371236297 4.3300000000000001 Se
atom -1.6550000000000005 13.3772057371236297 1.0000000000000000 Se
atom 6.6200000000000001 0.9555146955088306 2.6650000000000000 W
atom 8.2750000000000004 1.9110293910176612 4.3300000000000001 Se
atom 8.2750000000000004 1.9110293910176612 1.0000000000000000 Se
atom 4.9649999999999990 3.8220587820353225 2.6650000000000000 W
atom 6.6200000000000001 4.7775734775441538 4.3300000000000001 Se
atom 6.6200000000000001 4.7775734775441538 5.7300000000000001 Se
atom 6.6200000000000001 4.7775734775441538 1.0000000000000000 Se
atom 3.3099999999999992 6.6886028685618149 2.6650000000000000 W
atom 4.9650000000000007 7.6441175640706449 4.3300000000000001 Se
atom 4.9650000000000007 7.6441175640706449 1.0000000000000000 Se
atom 1.6549999999999994 9.5551469550883077 2.6650000000000000 W
atom 3.3099999999999987 10.5106616505971395 4.3300000000000001 Se
atom 3.3099999999999987 10.5106616505971395 1.0000000000000000 Se
atom -0.0000000000000003 12.4216910416147979 2.6650000000000000 W
atom 1.6550000000000000 13.3772057371236297 4.3300000000000001 Se
atom 1.6550000000000000 13.3772057371236297 1.0000000000000000 Se
atom 9.9300000000000015 0.9555146955088306 2.6650000000000000 W
atom 11.5850000000000009 1.9110293910176612 4.3300000000000001 Se
atom 11.5850000000000009 1.9110293910176612 1.0000000000000000 Se
atom 8.2750000000000021 3.8220587820353225 2.6650000000000000 W
atom 9.9300000000000015 4.7775734775441538 4.3300000000000001 Se
atom 9.9300000000000015 4.7775734775441538 1.0000000000000000 Se
atom 6.6200000000000001 6.6886028685618149 2.6650000000000000 W
atom 8.2749999999999986 7.6441175640706449 4.3300000000000001 Se
atom 8.2749999999999986 7.6441175640706449 1.0000000000000000 Se
atom 4.9650000000000016 9.5551469550883077 2.6650000000000000 W
atom 6.6200000000000010 10.5106616505971395 4.3300000000000001 Se
atom 6.6200000000000010 10.5106616505971395 1.0000000000000000 Se
atom 3.3100000000000009 12.4216910416147979 2.6650000000000000 W
atom 4.9650000000000007 13.3772057371236297 4.3300000000000001 Se
atom 4.9650000000000007 13.3772057371236297 1.0000000000000000 Se
atom 13.2400000000000020 0.9555146955088306 2.6650000000000000 W
atom 14.8950000000000014 1.9110293910176612 4.3300000000000001 Se
atom 14.8950000000000014 1.9110293910176612 1.0000000000000000 Se
atom 11.5850000000000026 3.8220587820353225 2.6650000000000000 W
atom 13.2400000000000002 4.7775734775441538 4.3300000000000001 Se
atom 13.2400000000000002 4.7775734775441538 1.0000000000000000 Se
atom 9.9300000000000015 6.6886028685618149 2.6650000000000000 W
atom 11.5850000000000009 7.6441175640706449 4.3300000000000001 Se
atom 11.5850000000000009 7.6441175640706449 1.0000000000000000 Se
atom 8.2750000000000004 9.5551469550883077 2.6650000000000000 W
atom 9.9299999999999997 10.5106616505971395 4.3300000000000001 Se
atom 9.9299999999999997 10.5106616505971395 1.0000000000000000 Se
atom 6.6200000000000019 12.4216910416147979 2.6650000000000000 W
atom 8.2750000000000004 13.3772057371236297 4.3300000000000001 Se
atom 8.2750000000000004 13.3772057371236297 1.0000000000000000 Se
