# 
# This is the geometry file that corresponds to the current relaxation step.
# If you do not want this file to be written, set the "write_restart_geometry" flag to .false.
#  aims_uuid : 689065E2-5CD8-42CD-A2AC-2E523BFADE31                                
# 
lattice_vector     16.55000000      0.00000000      0.00000000
lattice_vector     -8.27500000     14.33272043      0.00000000
lattice_vector      0.00000000      0.00000000    100.33000000
atom      -0.00138575      0.95472751      2.65387436 W
atom       1.65481911      1.91092433      4.33621030 Se
atom       1.65586460      1.91154144      0.97254544 Se
atom      -1.65499322      3.82071451      2.65571305 W
atom      -0.00194590      4.77632484      4.34231482 Se
atom      -0.00320842      4.77929532      0.97059972 Se
atom      -3.30734344      6.68726374      2.65838986 W
atom      -1.65500252      7.64415318      4.34520974 Se
atom      -1.65500300      7.64550990      0.97332145 Se
atom      -4.96484885      9.55813573      2.65839013 W
atom      -3.30998292     10.51065958      4.34520650 Se
atom      -3.30881166     10.50997567      0.97332135 Se
atom      -6.62117670     12.42237069      2.65571654 W
atom      -4.96706213     13.37615366      4.34231195 Se
atom      -4.96513762     13.37356568      0.97058862 Se
atom       3.31508981      0.95111535      2.65421668 W
atom       4.95972705      1.90738067      4.34808659 Se
atom       4.96178677      1.89683791      0.95610337 Se
atom       1.65375376      3.82868049      2.65422715 W
atom       3.30423597      4.77481720      4.34811534 Se
atom       3.29611783      4.78189237      0.95610964 Se
atom      -0.00266201      6.68725916      2.65839156 W
atom       1.65880389      7.64192811      4.33885489 Se
atom       1.65527860      7.64396681      0.97734462 Se
atom      -1.65500020      9.55515537      2.65981016 W
atom      -0.00001639     10.51066007      4.34520076 Se
atom      -0.00119312     10.50997190      0.97332387 Se
atom      -3.31249693     12.42006598      2.65838684 W
atom      -1.65499682     13.38158393      4.33885758 Se
atom      -1.65500842     13.37749603      0.97731756 Se
atom       6.62001378      0.96528245      2.65551626 W
atom       8.28027522      1.90739260      4.34808498 Se
atom       8.27821910      1.89684124      0.95609774 Se
atom       4.91543337      3.79343274      2.64608406 W
atom       6.61999694      4.77753576      4.24673336 Se
atom       6.62000365      4.77748724      6.51690886 Se
atom       6.61999747      4.77754849      1.01254567 Se
atom       3.31849407      6.68370282      2.65554279 W
atom       4.96449719      7.65048860      4.34810639 Se
atom       4.95433038      7.65397642      0.95611667 Se
atom       1.65485068      9.55812709      2.65839225 W
atom       3.31011590     10.51298522      4.34232269 Se
atom       3.30691509     10.51259483      0.97059179 Se
atom       0.00249553     12.42007701      2.65837918 W
atom       1.65706927     13.37615428      4.34230876 Se
atom       1.65513840     13.37356232      0.97058617 Se
atom       9.92491028      0.95109549      2.65421230 W
atom      11.58517884      1.91093168      4.33620428 Se
atom      11.58412956      1.91154378      0.97253958 Se
atom       8.32454713      3.79344593      2.64608223 W
atom       9.93576005      4.77481148      4.34811169 Se
atom       9.94388839      4.78188366      0.95610670 Se
atom       6.62000594      6.74580403      2.64609451 W
atom       8.27549795      7.65048941      4.34810372 Se
atom       8.28567640      7.65398324      0.95611993 Se
atom       4.95862988      9.55293418      2.65423033 W
atom       6.62000090     10.51087244      4.33621624 Se
atom       6.62000019     10.50965669      0.97255687 Se
atom       3.31118122     12.42237788      2.65570982 W
atom       4.96602278     13.37780608      4.34011842 Se
atom       4.96476284     13.37707122      0.96873535 Se
atom      13.24137718      0.95473090      2.65386862 W
atom      14.89500187      1.90986517      4.34011904 Se
atom      14.89500149      1.91132767      0.96873377 Se
atom      11.58626140      3.82868385      2.65422502 W
atom      13.24194028      4.77632344      4.34231301 Se
atom      13.24321755      4.77929079      0.97059671 Se
atom       9.92150255      6.68368762      2.65554184 W
atom      11.58119775      7.64193176      4.33885414 Se
atom      11.58472200      7.64396855      0.97734619 Se
atom       8.28136286      9.55293730      2.65422954 W
atom       9.92988054     10.51298300      4.34232070 Se
atom       9.93307985     10.51259810      0.97059456 Se
atom       6.61999800     12.42329255      2.65387828 W
atom       8.27397738     13.37780501      4.34012083 Se
atom       8.27523950     13.37707428      0.96873773 Se
# 
# What follows is the current estimated Hessian matrix constructed by the BFGS algorithm.
# This is NOT the true Hessian matrix of the system.
# If you do not want this information here, switch it off using the "hessian_to_restart_geometry" keyword.
# 
trust_radius             0.0005731597
hessian_file
