# 
# This is the geometry file that corresponds to the current relaxation step.
# If you do not want this file to be written, set the "write_restart_geometry" flag to .false.
#  aims_uuid : B90D9C1D-9135-43C8-A990-8D354F9CBE8E                                
# 
  set_vacuum_level        52.600000
lattice_vector      3.16157409     -0.00018260      0.00040070
lattice_vector     -1.58092338      2.73789307      0.00033595
lattice_vector     -0.00000456     -0.00000015     99.93084915
atom      -0.00009031      0.91263764      2.59837999 W
atom       1.58049843      1.82478661      4.17614952 S
atom       1.58093839      1.82539611      1.02137127 S
# 
# What follows is the current estimated Hessian matrix constructed by the BFGS algorithm.
# This is NOT the true Hessian matrix of the system.
# If you do not want this information here, switch it off using the "hessian_to_restart_geometry" keyword.
# 
trust_radius             0.0125000002
hessian_file
