# 
# This is the geometry file that corresponds to the current relaxation step.
# If you do not want this file to be written, set the "write_restart_geometry" flag to .false.
#  aims_uuid : AD2A4CCF-A848-4955-AB94-FAB6C4A3F0DD                                
# 
  set_vacuum_level        52.600000
lattice_vector      3.18000000      0.00000000      0.00000000
lattice_vector     -1.59000000      2.75396078      0.00000000
lattice_vector      0.00000000      0.00000000    100.00000000
atom       0.00000000      0.91798693      2.60000000 W
atom       1.59000000      1.83597386      4.14534850 S
atom       1.59000000      1.83597386      1.05465150 S
# 
# What follows is the current estimated Hessian matrix constructed by the BFGS algorithm.
# This is NOT the true Hessian matrix of the system.
# If you do not want this information here, switch it off using the "hessian_to_restart_geometry" keyword.
# 
