# 
# This is the geometry file that corresponds to the current relaxation step.
# If you do not want this file to be written, set the "write_restart_geometry" flag to .false.
#  aims_uuid : F3C42C97-A1EB-4FDA-A5F3-ECCE1467CA57                                
# 
  set_vacuum_level        52.514023
lattice_vector     15.67253790      0.00000000      0.00000000
lattice_vector     -7.83631930     13.57134925      0.00000000
lattice_vector      0.00000000      0.00000000     99.83654525
atom_frac       0.03333440      0.06666894      0.02600000 W
atom_frac       0.16666614      0.13333220      0.04163196 S
atom_frac       0.16666614      0.13333220      0.01036804 S
atom_frac       0.03333440      0.26666894      0.02600000 W
atom_frac       0.16666614      0.33333220      0.04163196 S
atom_frac       0.16666614      0.33333220      0.01036804 S
atom_frac       0.03333440      0.46666894      0.02600000 W
atom_frac       0.16666614      0.53333220      0.04163196 S
atom_frac       0.16666614      0.53333220      0.01036804 S
atom_frac       0.03333440      0.66666894      0.02600000 W
atom_frac       0.16666614      0.73333220      0.04163196 S
atom_frac       0.16666614      0.73333220      0.01036804 S
atom_frac       0.03333440      0.86666894      0.02600000 W
atom_frac       0.16666614      0.93333220      0.04163196 S
atom_frac       0.16666614      0.93333220      0.01036804 S
atom_frac       0.23333440      0.06666894      0.02600000 W
atom_frac       0.36666614      0.13333220      0.04163196 S
atom_frac       0.36666614      0.13333220      0.01036804 S
atom_frac       0.23333440      0.26666894      0.02600000 W
atom_frac       0.36666614      0.33333220      0.04163196 S
atom_frac       0.36666614      0.33333220      0.01036804 S
atom_frac       0.23333440      0.46666894      0.02600000 W
atom_frac       0.36666614      0.53333220      0.04163196 S
atom_frac       0.36666614      0.53333220      0.01036804 S
atom_frac       0.23333440      0.66666894      0.02600000 W
atom_frac       0.36666614      0.73333220      0.04163196 S
atom_frac       0.36666614      0.73333220      0.01036804 S
atom_frac       0.23333440      0.86666894      0.02600000 W
atom_frac       0.36666614      0.93333220      0.04163196 S
atom_frac       0.36666614      0.93333220      0.01036804 S
atom_frac       0.43333440      0.06666894      0.02600000 W
atom_frac       0.56666614      0.13333220      0.04163196 S
atom_frac       0.56666614      0.13333220      0.01036804 S
atom_frac       0.43333440      0.26666894      0.02600000 W
atom_frac       0.56666614      0.33333220      0.04163196 S
atom_frac       0.56666614      0.33333220      0.01036804 S
atom_frac       0.43333440      0.46666894      0.02600000 W
atom_frac       0.56666614      0.53333220      0.04163196 S
atom_frac       0.56666614      0.53333220      0.01036804 S
atom_frac       0.43333440      0.66666894      0.02600000 W
atom_frac       0.56666614      0.73333220      0.04163196 S
atom_frac       0.56666614      0.73333220      0.01036804 S
atom_frac       0.43333440      0.86666894      0.02600000 W
atom_frac       0.56666614      0.93333220      0.04163196 S
atom_frac       0.56666614      0.93333220      0.01036804 S
atom_frac       0.63333440      0.06666894      0.02600000 W
atom_frac       0.76666614      0.13333220      0.04163196 S
atom_frac       0.76666614      0.13333220      0.01036804 S
atom_frac       0.63333440      0.26666894      0.02600000 W
atom_frac       0.76666614      0.33333220      0.04163196 S
atom_frac       0.76666614      0.33333220      0.01036804 S
atom_frac       0.63333440      0.46666894      0.02600000 W
atom_frac       0.76666614      0.53333220      0.04163196 S
atom_frac       0.76666614      0.53333220      0.01036804 S
atom_frac       0.63333440      0.66666894      0.02600000 W
atom_frac       0.76666614      0.73333220      0.04163196 S
atom_frac       0.76666614      0.73333220      0.01036804 S
atom_frac       0.63333440      0.86666894      0.02600000 W
atom_frac       0.76666614      0.93333220      0.04163196 S
atom_frac       0.76666614      0.93333220      0.01036804 S
atom_frac       0.83333440      0.06666894      0.02600000 W
atom_frac       0.96666614      0.13333220      0.04163196 S
atom_frac       0.96666614      0.13333220      0.01036804 S
atom_frac       0.83333440      0.26666894      0.02600000 W
atom_frac       0.96666614      0.33333220      0.04163196 S
atom_frac       0.96666614      0.33333220      0.01036804 S
atom_frac       0.83333440      0.46666894      0.02600000 W
atom_frac       0.96666614      0.53333220      0.04163196 S
atom_frac       0.96666614      0.53333220      0.01036804 S
atom_frac       0.83333440      0.66666894      0.02600000 W
atom_frac       0.96666614      0.73333220      0.04163196 S
atom_frac       0.96666614      0.73333220      0.01036804 S
atom_frac       0.83333440      0.86666894      0.02600000 W
atom_frac       0.96666614      0.93333220      0.04163196 S
atom_frac       0.96666614      0.93333220      0.01036804 S
# 
# What follows is the current estimated Hessian matrix constructed by the BFGS algorithm.
# This is NOT the true Hessian matrix of the system.
# If you do not want this information here, switch it off using the "hessian_to_restart_geometry" keyword.
# 
trust_radius             0.0896429766
hessian_file
