#
lattice_vector      15.6725379     -0.000     -0.000
lattice_vector      -7.8363193      13.57134925      0.00
lattice_vector      0.0000      0.0000     99.83654525
atom_frac 0.03333333 0.06666667 0.02600000 W
atom_frac 0.16666667 0.13333333 0.04170859 S
atom_frac 0.16666667 0.13333333 0.01029141 S
atom_frac 0.03333333 0.26666667 0.02600000 W
atom_frac 0.16666667 0.33333333 0.04170859 S
atom_frac 0.16666667 0.33333333 0.01029141 S
atom_frac 0.03333333 0.46666667 0.02600000 W
atom_frac 0.16666667 0.53333333 0.04170859 S
atom_frac 0.16666667 0.53333333 0.01029141 S
atom_frac 0.03333333 0.66666667 0.02600000 W
atom_frac 0.16666667 0.73333333 0.04170859 S
atom_frac 0.16666667 0.73333333 0.01029141 S
atom_frac 0.03333333 0.86666667 0.02600000 W
atom_frac 0.16666667 0.93333333 0.04170859 S
atom_frac 0.16666667 0.93333333 0.01029141 S
atom_frac 0.23333333 0.06666667 0.02600000 W
atom_frac 0.36666667 0.13333333 0.04170859 S
atom_frac 0.36666667 0.13333333 0.01029141 S
atom_frac 0.23333333 0.26666667 0.02600000 W
atom_frac 0.36666667 0.33333333 0.04170859 S
atom_frac 0.36666667 0.33333333 0.01029141 S
atom_frac 0.23333333 0.46666667 0.02600000 W
atom_frac 0.36666667 0.53333333 0.04170859 S
atom_frac 0.36666667 0.53333333 0.01029141 S
atom_frac 0.23333333 0.66666667 0.02600000 W
atom_frac 0.36666667 0.73333333 0.04170859 S
atom_frac 0.36666667 0.73333333 0.01029141 S
atom_frac 0.23333333 0.86666667 0.02600000 W
atom_frac 0.36666667 0.93333333 0.04170859 S
atom_frac 0.36666667 0.93333333 0.01029141 S
atom_frac 0.43333333 0.06666667 0.02600000 W
atom_frac 0.56666667 0.13333333 0.04170859 S
atom_frac 0.56666667 0.13333333 0.01029141 S
atom_frac 0.43333333 0.26666667 0.02600000 W
atom_frac 0.56666667 0.33333333 0.04170859 S
atom_frac 0.56666667 0.33333333 0.01029141 S
atom_frac 0.43333333 0.46666667 0.02600000 W
atom_frac 0.56666667 0.53333333 0.04170859 S
atom_frac 0.56666667 0.53333333 0.01029141 S
atom_frac 0.43333333 0.66666667 0.02600000 W
atom_frac 0.56666667 0.73333333 0.04170859 S
atom_frac 0.56666667 0.73333333 0.01029141 S
atom_frac 0.43333333 0.86666667 0.02600000 W
atom_frac 0.56666667 0.93333333 0.04170859 S
atom_frac 0.56666667 0.93333333 0.01029141 S
atom_frac 0.63333333 0.06666667 0.02600000 W
atom_frac 0.76666667 0.13333333 0.04170859 S
atom_frac 0.76666667 0.13333333 0.01029141 S
atom_frac 0.63333333 0.26666667 0.02600000 W
atom_frac 0.76666667 0.33333333 0.04170859 S
atom_frac 0.76666667 0.33333333 0.01029141 S
atom_frac 0.63333333 0.46666667 0.02600000 W
atom_frac 0.76666667 0.53333333 0.04170859 S
atom_frac 0.76666667 0.53333333 0.01029141 S
atom_frac 0.63333333 0.66666667 0.02600000 W
atom_frac 0.76666667 0.73333333 0.04170859 S
atom_frac 0.76666667 0.73333333 0.01029141 S
atom_frac 0.63333333 0.86666667 0.02600000 W
atom_frac 0.76666667 0.93333333 0.04170859 S
atom_frac 0.76666667 0.93333333 0.01029141 S
atom_frac 0.83333333 0.06666667 0.02600000 W
atom_frac 0.96666667 0.13333333 0.04170859 S
atom_frac 0.96666667 0.13333333 0.01029141 S
atom_frac 0.83333333 0.26666667 0.02600000 W
atom_frac 0.96666667 0.33333333 0.04170859 S
atom_frac 0.96666667 0.33333333 0.01029141 S
atom_frac 0.83333333 0.46666667 0.02600000 W
atom_frac 0.96666667 0.53333333 0.04170859 S
atom_frac 0.96666667 0.53333333 0.01029141 S
atom_frac 0.83333333 0.66666667 0.02600000 W
atom_frac 0.96666667 0.73333333 0.04170859 S
atom_frac 0.96666667 0.73333333 0.01029141 S
atom_frac 0.83333333 0.86666667 0.02600000 W
atom_frac 0.96666667 0.93333333 0.04170859 S
atom_frac 0.96666667 0.93333333 0.01029141 S
