#
# distorted structure-file for based on eigenmodes
# vibration     3 :   -62.249 1/cm
#
lattice_vector    3.08234366   -0.00000000   -0.00000000
lattice_vector    0.00000000    3.08234366   -0.00000000
lattice_vector   -0.00000000    0.00000000    3.08234366
atom    0.00000000   -0.03906968   -0.00000000  Mo
atom    1.54117183    1.44684929    1.54117183  Mo
