# 
# This is the geometry file that corresponds to the current relaxation step.
# If you do not want this file to be written, set the "write_restart_geometry" flag to .false.
#  aims_uuid : 401A0A2E-7134-487C-A3DD-29CC12527334                                
# 
  set_vacuum_level        52.633142
lattice_vector     16.23865900      0.00000000      0.00000000
lattice_vector     -8.11989635     14.06215255      0.00000000
lattice_vector      0.00000000      0.00000000     99.93951163
atom      -0.00003537      0.93747215      2.66338983 Mo
atom       1.62378838      1.87494442      4.31755859 Se
atom       1.62378608      1.87494423      1.00921369 Se
atom      -1.62404891      3.74991941      2.66339144 Mo
atom      -0.00018625      4.68737230      4.31755979 Se
atom      -0.00018671      4.68737252      1.00921065 Se
atom      -3.24803054      6.56236507      2.66339374 Mo
atom      -1.62415188      7.49980269      4.31755944 Se
atom      -1.62415133      7.49980297      1.00921207 Se
atom      -4.87199452      9.37479557      2.66339355 Mo
atom      -3.24814161     10.31223925      4.31757334 Se
atom      -3.24814182     10.31223932      1.00920047 Se
atom      -6.49593947     12.18719351      2.66339124 Mo
atom      -4.87212839     13.12467889      4.31757202 Se
atom      -4.87213052     13.12467880      1.00920236 Se
atom       3.24769680      0.93749049      2.66339276 Mo
atom       4.87151454      1.87494698      4.31756235 Se
atom       4.87151544      1.87494723      1.00921058 Se
atom       1.62371181      3.74989913      2.66339172 Mo
atom       3.24753063      4.68737887      4.31756201 Se
atom       3.24753122      4.68737852      1.00921202 Se
atom      -0.00028239      6.56234248      2.66339157 Mo
atom       1.62356292      7.49980305      4.31755060 Se
atom       1.62356251      7.49980303      1.00922209 Se
atom      -1.62427592      9.37478969      2.66339259 Mo
atom      -0.00040686     10.31222784      4.31754937 Se
atom      -0.00040728     10.31222859      1.00922160 Se
atom      -3.24824683     12.18721660      2.66339321 Mo
atom      -1.62439332     13.12466751      4.31756307 Se
atom      -1.62439298     13.12466830      1.00920811 Se
atom       6.49542132      0.93750747      2.66339089 Mo
atom       8.11925722      1.87494456      4.31757795 Se
atom       8.11925586      1.87494618      1.00919256 Se
atom       4.87146618      3.74992964      2.66339136 Mo
atom       6.49528220      4.68737693      4.31757855 Se
atom       6.49528280      4.68737811      1.00919155 Se
atom       3.24748269      6.56235399      2.66339243 Mo
atom       4.87129673      7.49981015      4.31758010 Se
atom       4.87129933      7.49981024      1.00919235 Se
atom       1.62348868      9.37477594      2.66339242 Mo
atom       3.24732108     10.31224512      4.31757722 Se
atom       3.24732278     10.31224448      1.00919714 Se
atom      -0.00051179     12.18721868      2.66339163 Mo
atom       1.62334529     13.12466315      4.31756926 Se
atom       1.62334452     13.12466362      1.00920366 Se
atom       9.74314311      0.93749564      2.66339262 Mo
atom      11.36699391      1.87494649      4.31756111 Se
atom      11.36699375      1.87494560      1.00921340 Se
atom       8.11917725      3.74992717      2.66339007 Mo
atom       9.74300955      4.68737298      4.31756362 Se
atom       9.74300623      4.68737359      1.00920893 Se
atom       6.49521533      6.56235172      2.66338895 Mo
atom       8.11902256      7.49980633      4.31755972 Se
atom       8.11902030      7.49980749      1.00920997 Se
atom       4.87123303      9.37478975      2.66339082 Mo
atom       6.49505275     10.31224128      4.31755588 Se
atom       6.49505429     10.31224180      1.00921385 Se
atom       3.24723633     12.18723248      2.66339312 Mo
atom       4.87107748     13.12466422      4.31755715 Se
atom       4.87108024     13.12466340      1.00921573 Se
atom      12.99085871      0.93749136      2.66339218 Mo
atom      14.61473708      1.87494835      4.31757220 Se
atom      14.61473864      1.87494846      1.00919832 Se
atom      11.36688072      3.74993396      2.66339366 Mo
atom      12.99075811      4.68738337      4.31756674 Se
atom      12.99075910      4.68738292      1.00920672 Se
atom       9.74290592      6.56234731      2.66339171 Mo
atom      11.36676971      7.49981418      4.31758359 Se
atom      11.36676722      7.49981385      1.00919103 Se
atom       8.11894786      9.37476228      2.66338886 Mo
atom       9.74277940     10.31223729      4.31757480 Se
atom       9.74277528     10.31223754      1.00919750 Se
atom       6.49496278     12.18720399      2.66338905 Mo
atom       8.11880632     13.12466931      4.31757066 Se
atom       8.11880489     13.12466956      1.00919902 Se
# 
# What follows is the current estimated Hessian matrix constructed by the BFGS algorithm.
# This is NOT the true Hessian matrix of the system.
# If you do not want this information here, switch it off using the "hessian_to_restart_geometry" keyword.
# 
trust_radius             0.0004281928
hessian_file
